Zr C 
 1.0000000000000000
     9.4000000000000004    0.0000000000000000    0.0000000000000000
     0.0000000000000000    9.4000000000000004    0.0000000000000000
     0.0000000000000000    0.0000000000000000    9.4000000000000004
 Zr  C  
  32  32
Direct
  0.8875626244680853  0.9677904234042555  0.9675377723404256
  0.9299328425531915  0.3883628776595745  0.3050805457446809
  0.3392035978723404  0.9330240808510640  0.2664401372340425
  0.4418175414893616  0.2202690095744681  0.0791258276595745
  0.7622710606382980  0.8060109063829788  0.3753880255319149
  0.9044842138297873  0.3331335648936170  0.0105342042553192
  0.2427181957446808  0.1275465808510638  0.8567961702127659
  0.1945623393617021  0.2328806574468085  0.1776581542553191
  0.6347159734042555  0.6648468627659574  0.7919946319148937
  0.1376185000000000  0.8515335329787234  0.0208290361702128
  0.2319760702127659  0.6125685010638298  0.2665705861702127
  0.4233134765957446  0.5338270648936170  0.0324181148936170
  0.1278287861702128  0.2215683085106383  0.5195132893617022
  0.0614789968085106  0.9284120393617021  0.6798296159574467
  0.0481047244680851  0.4442445329787234  0.7088096542553192
  0.0963708500000000  0.8207576340425531  0.4091685531914893
  0.6066687563829787  0.8451602095744681  0.0599268255319149
  0.5196308776595745  0.0395543478723404  0.4821850244680851
  0.9946976904255318  0.1026591787234043  0.2383460904255319
  0.1637384212765958  0.4593456872340425  0.9978006553191489
  0.3158447574468085  0.7164165521276596  0.5648316319148936
  0.4104962000000000  0.3952217308510638  0.4617268212765957
  0.6917972085106383  0.9958224106382980  0.6962728297872340
  0.7659953382978724  0.2575249861702127  0.5422052914893617
  0.6985386000000000  0.3582000755319149  0.8082250680851064
  0.5253065904255320  0.6536524893617021  0.2955788074468085
  0.9572135691489361  0.6443415021276595  0.5596798776595744
  0.6769324234042553  0.4127148925531915  0.2019182744680851
  0.6199239893617021  0.5356287744680851  0.5849289563829787
  0.4278212436170212  0.8348941319148936  0.8243325478723403
  0.1938954797872340  0.6435731031914893  0.8307316882978723
  0.8796566319148936  0.6646357308510639  0.0248412882978723
  0.4129299095744681  0.4329409180851064  0.7496890882978724
  0.0140416776595745  0.6210436361702127  0.3373448063829787
  0.9228722117021279  0.8704196287234043  0.2552029553191489
  0.8407215234042554  0.2085047500000000  0.7637815765957447
  0.2542940904255319  0.0155820680851064  0.6632693925531915
  0.5035897457446809  0.0745637936170213  0.8041909968085106
  0.2967120882978723  0.5007447329787235  0.6954996627659574
  0.4613705574468084  0.2167158446808511  0.7796212553191489
  0.8910644840425532  0.9809659234042554  0.4192951234042553
  0.3708493276595745  0.7589958670212765  0.0862670382978723
  0.6011520489361702  0.0997138797872340  0.8962175361702127
  0.7643859265957448  0.0348399287234043  0.4206916702127659
  0.3759295638297873  0.4144712680851064  0.2193477265957447
  0.5406058404255318  0.2551883968085107  0.6344576180851064
  0.6377262489361702  0.5788240734042553  0.0039735510638300
  0.5769565063829788  0.1908744117021278  0.3317793531914894
  0.7563934882978723  0.9822096617021276  0.1974136521276596
  0.9206821063829786  0.6840140372340425  0.7891831095744681
  0.0236817978723403  0.5543732063829787  0.1699726595744681
  0.6827311585106384  0.1133562787234042  0.2459937351063830
  0.0107356840425530  0.1364385138297872  0.9230503297872340
  0.1817844691489361  0.0811323234042553  0.3922300287234042
  0.5428044670212766  0.7431632489361703  0.6071225308510638
  0.7315886297872340  0.5702246531914893  0.3630041531914893
  0.4152292765957447  0.3210636170212766  0.8479401287234043
  0.8960962808510639  0.8418640872340425  0.5795364968085106
  0.0512375148936169  0.7032218414893617  0.2195345808510638
  0.2452477872340424  0.0491781138297872  0.0710017797872340
  0.6790433297872340  0.6491410702127660  0.1746924978723404
  0.8157426095744681  0.8089532010638297  0.8003886287234042
  0.9952260531914893  0.1963557212765957  0.7683315914893616
  0.2540439851063829  0.9986352457446810  0.5148768872340427
