Zr C 
 1.0000000000000000
     9.4000000000000004    0.0000000000000000    0.0000000000000000
     0.0000000000000000    9.4000000000000004    0.0000000000000000
     0.0000000000000000    0.0000000000000000    9.4000000000000004
 Zr  C  
  32  32
Direct
  0.0098291563829787  0.9887452627659575  0.0136199287234043
  0.0080892521276596  0.2421922489361702  0.2370257563829787
  0.2355135095744681  0.0047826808510638  0.2477461861702127
  0.2331362617021276  0.2585604957446808  0.0120349542553191
  0.9764383010638299  0.9888872382978724  0.5041480510638298
  0.0030360957446809  0.2633979436170212  0.7254487478723404
  0.2312412446808511  0.9991131255319149  0.7415365680851064
  0.2520777063829787  0.2368661808510638  0.4944398478723404
  0.0143138755319149  0.5210023606382979  0.0135091914893617
  0.0056663925531915  0.7584643223404255  0.2588723691489361
  0.2483223840425532  0.5236989638297872  0.2603880585106383
  0.2653017425531914  0.7788998106382978  0.9835821542553194
  0.0124725053191489  0.5010085734042553  0.4968866425531915
  0.0007466936170213  0.7517374446808510  0.7471124819148935
  0.2705006819148936  0.5269570978723404  0.7620160829787234
  0.2525722776595745  0.7593166638297871  0.5148156117021276
  0.5069962031914893  0.9922245478723405  0.0324979159574468
  0.4848760042553191  0.2413264031914894  0.2480796436170213
  0.7589195606382978  0.9914944031914894  0.2585112244680851
  0.7370412159574469  0.2136539010638298  0.0349420478723404
  0.4436844638297872  0.9797634244680852  0.5155861872340426
  0.4850998755319149  0.2609035425531915  0.7360310861702127
  0.7294473404255318  0.0324796170212766  0.7605745223404256
  0.7509614031914893  0.2330160563829787  0.4950137404255319
  0.5084581585106382  0.5074378191489362  0.0049589691489362
  0.5135359382978723  0.7565150946808510  0.2592346085106383
  0.7824534797872340  0.4486775265957447  0.2326533808510639
  0.7745381627659574  0.7264269978723404  0.0109782978723404
  0.4976978670212766  0.4687704393617022  0.4819955638297871
  0.5373576893617020  0.7664102585106383  0.7544339680851063
  0.7415535031914894  0.5115163031914893  0.7203626691489361
  0.7428492957446808  0.7474323840425531  0.4746504000000000
  0.2382391521276596  0.0033540946808511  0.0209444553191489
  0.2370669574468085  0.2608384851063830  0.2646902617021277
  0.9944328382978724  0.9815975372340427  0.2461304276595745
  0.9874880500000000  0.2492307914893617  0.0027227468085106
  0.2072068765957447  0.9686776053191489  0.4900514925531915
  0.2380030244680851  0.2452194180851064  0.7425654425531915
  0.9759077085106383  0.0155011138297872  0.7207020351063830
  0.9894039127659576  0.2593964329787234  0.4706255159574467
  0.2495523691489362  0.5111670180851063  0.9884814287234044
  0.2376573574468085  0.7656049276595744  0.2168655159574468
  0.0140794627659574  0.5063574191489362  0.2629986787234043
  0.0248024021276596  0.7888738042553191  0.9785144212765958
  0.2477696127659574  0.5061747936170213  0.4875638276595745
  0.2418080563829787  0.7549738627659573  0.7605027202127659
  0.0229042691489362  0.5259287542553192  0.7414572680851064
  0.0313309510638298  0.7572794797872340  0.4908901968085106
  0.7292552255319148  0.0220913085106383  0.9857498255319149
  0.7449173010638298  0.2307181319148936  0.2392832212765957
  0.4960712372340425  0.9976684074468085  0.2574660574468085
  0.4746338595744681  0.2404439553191489  0.0148096414893617
  0.7226819882978723  0.9812951680851065  0.4904532702127660
  0.7687074808510638  0.2623876414893617  0.7363827638297873
  0.4703522542553191  0.9885438500000000  0.7659710702127659
  0.5244808265957447  0.2243570361702128  0.4840362638297873
  0.7400192446808510  0.5202201617021276  0.9583412000000001
  0.7426061436170212  0.7661874468085107  0.2360479755319149
  0.5232530138297872  0.5342044000000000  0.2553221585106383
  0.5020992053191489  0.7523656340425531  0.0093427468085106
  0.7542853340425532  0.4884722787234042  0.4727694595744680
  0.7625133755319149  0.7901987680851064  0.7108580691489361
  0.4911515617021276  0.4889629691489362  0.7434918627659574
  0.5034573797872340  0.7508549680851063  0.4981150063829787
