Zr C 
 1.0000000000000000
     9.2406471814206501    0.0000000000000000    0.0000000000000000
     0.0000000000000000    9.2406471814206501    0.0000000000000000
     0.0000000000000000    0.0000000000000000    9.2406471814206501
 Zr  C  
  32  32
Direct
  0.0070968113718111  0.0100429329437651  0.9947340268441547
  0.0085639575287662  0.2571738183855912  0.2571052809782468
  0.2246221254040878  0.9890114374018998  0.2470462777314948
  0.2476573637181293  0.2645385958372001  0.0028458980722557
  0.9885639568392489  0.0053170626510649  0.5005565053170751
  0.9999912430375915  0.2491497180661804  0.7558116409900909
  0.2469954999027574  0.0063161907228046  0.7582296285575553
  0.2607646383085416  0.2427256582752867  0.5040537343926507
  0.0029314202207031  0.5037415376445917  0.0165246077468488
  0.9865208001610066  0.7460157102264966  0.2551323899412796
  0.2533571290014416  0.5017129578674425  0.2484999140121881
  0.2536953791194945  0.7407193430955880  0.9969957569578225
  0.0053366954750910  0.4909250965799310  0.4910991536528202
  0.0072273444369004  0.7520492162034479  0.7608162103770687
  0.2706326982192523  0.5076710459665853  0.7437588055324258
  0.2356967436630512  0.7635391073242208  0.5052820044236525
  0.4790747750764576  0.9907485938677667  0.9867952917577749
  0.4872310966544028  0.2519360456355057  0.2374473007054762
  0.7631170384016196  0.0009794400567741  0.2458029578888002
  0.7481176441731852  0.2402351281697469  0.0080887278274495
  0.4874920426631249  0.9869414968853460  0.4939842892365707
  0.5019791232075657  0.2609291657458683  0.7538857423327131
  0.7400083777409958  0.9981743897728379  0.7513532075934739
  0.7716184169801622  0.2529949314265003  0.4939043024147076
  0.5320834659595882  0.5032959801074228  0.0117010570663706
  0.5064336542801037  0.7628401692657495  0.2403540018783123
  0.7402068562635484  0.4954450440662908  0.2678294562502178
  0.7548719254236900  0.7482889254664675  0.9864955454363734
  0.4937819300334448  0.4982466508684693  0.4974706684227358
  0.4991105416591545  0.7416943300010630  0.7426502457314851
  0.7495439057478613  0.4942961894686015  0.7577980722042278
  0.7301501926797633  0.7427628493164473  0.4967402477208643
  0.2605563531135533  0.0026634032786669  0.0021814132283428
  0.2672889313387113  0.2647397397574807  0.2565954530508834
  0.0006427839829165  0.0043067751877831  0.2417215727585650
  0.0082682293241991  0.2736129699966850  0.0020147539057040
  0.2694364032214057  0.9958909836882052  0.4968995969494509
  0.2590254311205090  0.2609195105779728  0.7391981455296573
  0.0091336741185940  0.9979689874928095  0.7635021272303711
  0.0131240634577886  0.2529776804702771  0.4791110409346189
  0.2537314555969808  0.5139629050602750  0.0217283547416136
  0.2498178065537934  0.7556417697712052  0.2423273614971779
  0.9942486701465180  0.4857332567598304  0.2530366059967375
  0.9974554044172061  0.7637244027874479  0.9895499148377664
  0.2369832412174544  0.4825514200959314  0.5024549275439588
  0.2328654030127336  0.7403682432281973  0.7540409554873592
  0.9856039011783212  0.5023437654164765  0.7519825671919763
  0.9839732329248794  0.7454057659347880  0.5097092203098140
  0.7682474377198967  0.0034654975318597  0.9982592463834848
  0.7733803812322696  0.2623340565230102  0.2564324081936974
  0.5047230836144709  0.9868991199833487  0.2525793003646714
  0.4849500713553978  0.2519520683227800  0.0096319530713125
  0.7639465798665738  0.0135777297343703  0.4968473841562852
  0.7368905777174295  0.2547485715863130  0.7421050598910246
  0.5087091236911939  0.0089777705361158  0.7517777752588090
  0.5043580799590147  0.2450330053237563  0.4907236853623550
  0.7578509018373061  0.4984802026920190  0.0049703531688068
  0.7636998752846065  0.7480386810891420  0.2320010685301814
  0.4895212414445371  0.5009554373320764  0.2356418654721579
  0.4994360892037084  0.7311483965738095  0.9679293155358369
  0.7540760655823158  0.4880194938150095  0.4918704134856087
  0.7643838403658301  0.7471605813369606  0.7350194241433851
  0.5203438823708854  0.4791749704395986  0.7585186288783737
  0.5012423274110883  0.7337385506539397  0.4876652448175386
