Zr C 
 1.0000000000000000
     4.5590000000000002    0.0846000000000000    0.0000000000000000
     0.0000000000000000    4.7469999999999999    0.0564000000000000
     0.0000000000000000    0.0000000000000000    4.6530000000000005
 Zr  C  
   4   4
Direct
  0.0011413520195228  0.9983152382978051  0.9914489675907034
  0.9963985581277528  0.5104136752592502  0.4963693382081605
  0.5078639422410567  0.0004607046934139  0.4984820509167053
  0.5098382081420032  0.4983050330162713  0.0055016469304359
  0.4921289874018734  0.9869283567173149  0.0184321958405953
  0.4925173392992130  0.5144133649308510  0.4929276947600920
  0.9984000026483573  0.9880272796321699  0.4975485194762323
  0.0017116101202207  0.5031363474529238  0.9992895862770748
