Zr C 
 1.0000000000000000
     9.4000000000000004    0.0000000000000000    0.0000000000000000
     0.0000000000000000    9.4000000000000004    0.0000000000000000
     0.0000000000000000    0.0000000000000000    9.4000000000000004
 Zr  C  
  32  32
Direct
  0.9944365638297872  0.9920979670212767  0.9874238936170212
  0.9865220904255321  0.2662124968085106  0.2524221138297872
  0.2218040074468085  0.0164878085106383  0.2129062393617021
  0.2454929797872341  0.2863312712765957  0.9874117680851066
  0.9878276489361701  0.0030781159574468  0.4956760723404255
  0.0008918882978723  0.2302184978723404  0.7612310712765957
  0.2623480723404255  0.0136184553191489  0.7320908648936170
  0.2682952489361702  0.1842942297872340  0.5271983414893616
  0.9816512691489361  0.5074126851063830  0.9607549882978723
  0.0260924574468085  0.7461942957446809  0.2349163297872340
  0.2765404329787234  0.5464320010638297  0.2343541808510638
  0.2534543851063830  0.7724297872340425  0.9935673808510639
  0.0051186851063830  0.5042860989361703  0.5056475734042553
  0.0009302095744681  0.7695370648936170  0.7074261212765958
  0.2655171425531915  0.4985921297872341  0.7447518734042553
  0.2736989414893617  0.7240629638297872  0.5294612691489361
  0.5033198819148936  0.0058676393617021  0.0324155531914894
  0.5006113202127659  0.2398351978723404  0.2096551553191489
  0.7501008414893616  0.9908331180851064  0.2387173808510638
  0.7765365829787234  0.2392686574468085  0.9765046946808511
  0.5088711574468086  0.9611574436170213  0.5520807521276595
  0.5084081468085105  0.2221505404255319  0.7574266978723404
  0.7419665244680851  0.0025031734042553  0.7346615329787234
  0.7146438936170213  0.2507051925531915  0.4812478478723404
  0.5002628085106383  0.5240578202127659  0.0089450755319149
  0.5138035914893617  0.7348426851063830  0.2966723968085107
  0.7435845723404255  0.4720319904255319  0.2249952436170213
  0.7506154765957447  0.7511119797872340  0.0342519010638298
  0.4944519648936170  0.4924043776595744  0.5333370531914893
  0.5097766904255319  0.7787040691489361  0.8233459946808510
  0.7762243797872340  0.4963294319148935  0.7587912595744680
  0.7641331382978723  0.7203789670212766  0.4938360414893617
  0.2252893414893617  0.0372879234042553  0.9750125521276596
  0.1835284840425532  0.5387211265957447  0.0111829957446809
  0.9909307361702127  0.0433429840425532  0.2344668946808510
  0.1526603404255319  0.3649666446808510  0.3905980223404256
  0.2765415414893617  0.9700446031914893  0.5004064755319149
  0.2758477212765957  0.2462488627659574  0.7672798180851064
  0.0308580382978723  0.9847246361702128  0.7478275808510638
  0.9843106840425532  0.2587941393617021  0.5218781829787233
  0.2136659542553191  0.2666277617021277  0.2449305904255319
  0.0987578691489362  0.8629526617021277  0.4232837287234042
  0.7613951382978724  0.4920146797872341  0.5357720861702129
  0.9734377404255319  0.7560068138297872  0.9822223542553192
  0.2632442712765957  0.7471351170212766  0.2552274904255319
  0.2753161382978723  0.7297215382978723  0.7465582308510638
  0.0104009319148936  0.5121228893617021  0.7540429127659574
  0.0186383553191489  0.7414512670212766  0.4648443999999999
  0.7433361234042553  0.9636432074468085  0.0218710659574468
  0.7408676382978724  0.2467332265957447  0.2401913000000000
  0.4821743946808510  0.0234196712765957  0.3272818265957447
  0.5472727840425532  0.2779491106382979  0.9959999670212768
  0.7525196914893616  0.9688284382978724  0.5190350010638298
  0.7636698670212766  0.2379600702127659  0.7616419691489361
  0.4941178925531915  0.9706207755319149  0.8128878819148936
  0.5162701744680851  0.1944525510638298  0.5044140340425531
  0.7287098191489362  0.4818746265957447  0.9970390425531915
  0.7508480638297872  0.7065164446808511  0.2577411563829787
  0.5147262478723404  0.5074550574468085  0.2584329914893617
  0.4909882085106382  0.7679095159574467  0.0747147191489362
  0.4122519223404255  0.6263868702127658  0.6848014159574468
  0.7637134595744680  0.7433123159574467  0.7741923457446809
  0.2539568936170213  0.4469287595744680  0.4734086000000000
  0.4899983638297872  0.7132072159574468  0.5575846574468084
