Zr C 
 1.0000000000000000
     9.5541257540596227    0.0000000000000000    0.0000000000000000
     0.0000000000000000    9.5541257540596227    0.0000000000000000
     0.0000000000000000    0.0000000000000000    9.5541257540596227
 Zr  C  
  32  32
Direct
  0.0407915083004221  0.9754661686444308  0.0085055673425138
  0.9688134657560484  0.2154967574218043  0.2596935014117584
  0.2359450448977137  0.0683159262083884  0.2675782280669410
  0.2639748737793577  0.1932508612015573  0.0109747634371933
  0.0065456329139720  0.0158418712393112  0.4928609787242094
  0.9872087762767753  0.2570486021660831  0.7861824926062331
  0.2453845595452657  0.9413036143299962  0.7076714839269435
  0.2121571781843798  0.2466217611798556  0.5526486290759209
  0.0583712392275175  0.4550186528738954  0.0420950048547467
  0.9645576572135741  0.7582558746331937  0.1621415449071064
  0.2834917552607187  0.5685807984777442  0.2426099739178224
  0.2640860833266623  0.7205557334301169  0.0026275025728370
  0.0222046187648156  0.5280091219080388  0.5134598869933805
  0.0007572037658104  0.6864907474357983  0.7896357902547365
  0.2787282435411182  0.4625612917144382  0.7785441422350343
  0.2272674105296741  0.7552695825605906  0.4551141498375619
  0.4959914838871010  0.9872822921607065  0.0039576138072009
  0.4890503098114069  0.2544409716364751  0.2483407609526000
  0.7392966831108262  0.0106204494908270  0.2634288782446241
  0.7634429886900651  0.2023380380123826  0.0305283620404584
  0.4644398571072345  0.0786097942745702  0.5203359185310736
  0.5213138332289233  0.2360395077531577  0.8245524815970344
  0.7695664511089202  0.9994867578545408  0.6996994117603574
  0.7536053266768701  0.2441502885817514  0.5353960541943352
  0.5129510523678854  0.4859965453172979  0.9945628191069259
  0.4418113146779979  0.8050255133738323  0.2752533615001431
  0.7614982487443819  0.5266770178173434  0.2677604362610565
  0.7123640786398557  0.7778345545475247  0.9620062537018881
  0.5371348747235648  0.5204820930776465  0.5369666071037550
  0.4755309179460532  0.7549339495489948  0.7155185954188708
  0.7758101024419219  0.4931929012968898  0.7538545959518729
  0.7783991441435647  0.7757236895119215  0.4946079381456831
  0.2559706364510490  0.9507815333286574  0.0231993649346534
  0.1898512995005613  0.3236146770086469  0.2651468282091226
  0.9897408153793297  0.0159620036333728  0.2032205541333807
  0.0018744174465561  0.2091159559158061  0.0126353821487754
  0.1541524382148936  0.1464146878541568  0.7758672651812514
  0.2502430846678052  0.2409146361740086  0.7775841580108260
  0.0144150206460785  0.8957400796638308  0.7115256586518629
  0.0740255904313887  0.4217661378685317  0.2811357615696753
  0.2982475920195238  0.4487969962273161  0.0340864950266770
  0.5779760107986474  0.7049445028644501  0.3273926333522363
  0.9926557822446302  0.5449138208996104  0.2888962832446695
  0.7918022683389115  0.4721708355244502  0.9890043775114262
  0.0323236503213052  0.4454857963525857  0.7526276956261138
  0.2468198054644618  0.6750957393730521  0.6822317936552589
  0.9752933375510889  0.2134368892029212  0.5379408930028122
  0.0237945339900308  0.7871019749561767  0.4145821147808268
  0.7648353117913543  0.9762463886448669  0.0279719470812329
  0.7606106468623995  0.2889010905919017  0.2910001617697621
  0.4609518467065089  0.0628810657788052  0.2603375153339517
  0.5323244251666840  0.0279339844241215  0.7425328320642232
  0.7599189278951050  0.0339931489662464  0.4638236939802735
  0.7404275118520545  0.2045462829678183  0.8103766277840938
  0.5376009382980481  0.1977484752278057  0.0104686532891302
  0.4620811075387117  0.3061391544649902  0.5305534991358213
  0.2603716513719729  0.9997996693670470  0.4527918216087389
  0.8634453996478680  0.6217599331342157  0.0025289451512331
  0.5421450013675083  0.5472490675327751  0.2674487876522097
  0.4823525520419104  0.7445994330749945  0.0037833937851028
  0.7544169969646204  0.5210280990790626  0.5441581096827121
  0.7599054499481620  0.7601956627914273  0.7541917518657598
  0.5182220579309639  0.4646187316630015  0.7577611679356193
  0.5325257737829279  0.7391029510993741  0.4909175408338183
