Zr C 
 1.0000000000000000
     9.2406471814206501    0.0000000000000000    0.0000000000000000
     0.0000000000000000    9.2406471814206501    0.0000000000000000
     0.0000000000000000    0.0000000000000000    9.2406471814206501
 Zr  C  
  32  32
Direct
  0.0038539378574699  0.0141104077928830  0.9960660774850177
  0.0034578984970063  0.2579879020587700  0.2772018290180183
  0.2439219197256996  0.9715612656948560  0.2415191843367063
  0.2431815906269158  0.2571250263485025  0.0069006941557308
  0.9977384289660990  0.0218056523578927  0.5001846482455369
  0.9920170039444511  0.2357114363568999  0.7677937811828925
  0.2632323832134492  0.9822125434752580  0.7561484864446234
  0.2403948323518270  0.2765821732852994  0.4763687113658685
  0.9788904027856186  0.4847378849185059  0.9568943222071206
  0.0197999259584188  0.7473928486184467  0.2706655346639346
  0.2380948073013378  0.5166326920909501  0.2316399661166287
  0.2718742919923669  0.7453394015354164  0.0002639274016330
  0.9841138010013893  0.5155452044071648  0.4862996597289345
  0.9868014677321282  0.7472869231371700  0.7591959461568197
  0.2404455917835844  0.4805158224120570  0.7583672693499185
  0.2621844815016006  0.7256309280460087  0.4956808825262183
  0.5073605969316122  0.9755486574085103  0.0095808484256391
  0.5011942171444294  0.2392371298890050  0.2375343443923748
  0.7733353973700098  0.0293836269981099  0.2434817579145033
  0.7160214690701766  0.2482960743932719  0.9689601232068789
  0.4960301805717588  0.9785364881803108  0.4686322175255087
  0.4981407134832646  0.2550059518274699  0.7346544994867246
  0.7556628224092057  0.0004556715473853  0.7654330612493515
  0.7405847616127563  0.2792737704766745  0.4938813981747940
  0.5003525380014752  0.5131304871734126  0.0275124842458182
  0.5135276238596155  0.7326241471064582  0.2798832277895046
  0.7568050010675600  0.5050264952635638  0.2525938296500519
  0.7685447134351219  0.7369080992174740  0.0271757264474838
  0.5002895045376318  0.4948012136198733  0.4827047210468483
  0.5175065118398779  0.7581576985306914  0.7557095788745828
  0.7281114956458720  0.5058508260545191  0.7319933309000218
  0.7410605897570057  0.7544146793112645  0.5225215956419278
  0.2780030055865692  0.0089611645563627  0.0040491319780318
  0.2468908816892254  0.2485635134537058  0.2776117873170016
  0.0211668107395406  0.0390462316022035  0.2696912933772311
  0.9844981236500390  0.2487425766694648  0.0009272359210108
  0.2467517518236696  0.0081983186364175  0.5047057471664003
  0.2308419300207558  0.2294488620086059  0.7842253272660812
  0.0173555343961681  0.9952279089186888  0.7817344530288006
  0.9915323993586379  0.2944377365116225  0.5333679625718889
  0.2706886791467615  0.4881884267879228  0.9894304167140614
  0.2877338099593183  0.7584061053743825  0.2444676823655870
  0.0325595290127444  0.5117928146319424  0.2286530313859645
  0.9769646805228123  0.7281395770123503  0.0087630550555822
  0.2692445465294237  0.5057100534468801  0.4785595016430585
  0.2523503337178055  0.7668344501072701  0.7743228628386998
  0.9952206897273607  0.4788259721566121  0.7173713041796783
  0.0187108994213778  0.7681989346236091  0.4993325683159156
  0.7676135416425984  0.9915280944653527  0.0053158798334781
  0.7331091704941070  0.2603151394889836  0.2425677602437577
  0.4980370865422939  0.9946219232241741  0.2468078269004285
  0.5007036227184117  0.2511787696717540  0.9631420004126121
  0.7499153710719462  0.0007300787344813  0.5324073318037488
  0.7180864088547368  0.2205250173491324  0.7377686969487660
  0.5194150242691219  0.9906702573632137  0.7600910165818252
  0.5085178589490931  0.2791282893243692  0.4851330693604943
  0.7515951484398353  0.5080390072070964  0.9900197845248950
  0.7690128667922479  0.7467753345106174  0.2699159800208435
  0.4994345600900302  0.5008246651062489  0.2582034638003767
  0.5129439959064951  0.7453285364955520  0.0114092549937386
  0.7266366173465032  0.5071734541951730  0.5054354980017701
  0.7498456162174056  0.7605417631494871  0.7702667226935203
  0.4968366727853112  0.5195405371230627  0.7362855508302174
  0.4952712110036856  0.7443897353672670  0.5137627675630100
