Zr C 
 1.0000000000000000
     9.5541257540596227    0.0000000000000000    0.0000000000000000
     0.0000000000000000    9.5541257540596227    0.0000000000000000
     0.0000000000000000    0.0000000000000000    9.5541257540596227
 Zr  C  
  32  32
Direct
  0.0110708758417856  0.0021078474910635  0.0172969724550444
  0.0143367602150095  0.2514828317995578  0.2543569315033776
  0.2423250017424412  0.0011109535579946  0.2403263070955881
  0.2520270616049685  0.2600434109781653  0.9994940510388461
  0.9760622503945144  0.9975413899079131  0.5023385973290853
  0.9889360551953083  0.2456270390833873  0.7505804062661544
  0.2481045436305660  0.0070060193599146  0.7638646191043694
  0.2733967761404137  0.2325442240548234  0.4927927024614939
  0.0227227896710229  0.5006159404975058  0.0128906802328480
  0.9679680498375312  0.7649611799273781  0.2273535743526330
  0.2690669985066598  0.5063861010981840  0.2511592323327321
  0.2506702163703857  0.7409381739602988  0.9967674729436258
  0.9925705018096670  0.5003485356018863  0.4941885978414907
  0.9732017500511537  0.7537079200512125  0.7626163908198577
  0.2439622347455083  0.4976249384178171  0.7513065438718952
  0.2545972046648466  0.7419454487489848  0.5049352828488942
  0.4853876073412065  0.9875735589988908  0.0082989016516042
  0.5244524751907228  0.2434530892595455  0.2524702010516311
  0.7569672208811987  0.0167369274925081  0.2501942063076055
  0.7545150530321368  0.2502816878858802  0.9957793919571483
  0.4970558460550031  0.9941368502527614  0.4834842160243952
  0.5037733701542363  0.2466923128993275  0.7559128282282949
  0.7447409457612207  0.0065063661082320  0.7498652356502457
  0.7357802912540700  0.2512653268123415  0.5019210133342017
  0.5148803843103886  0.5141122596081487  0.9958366625033067
  0.4955925284935758  0.7331465861252351  0.2567462490178871
  0.7632046162781223  0.5056412469709526  0.2379949645349634
  0.7389674504755258  0.7482002052320266  0.9878519413510249
  0.5156964788647949  0.4948692325921101  0.4998142920581658
  0.5100136250487950  0.7365658335625130  0.7524942307719947
  0.7564054572894102  0.5229758785493184  0.7584067884935630
  0.7403579084140091  0.7467007367962135  0.5027982919273204
  0.2611377539111707  0.9913605480894024  0.0009147838562085
  0.2522242957683558  0.2421443782040429  0.2444342904956729
  0.0071008108691864  0.0035293998496589  0.2469720716201989
  0.9999977842033334  0.2470877546275667  0.9970034777920069
  0.2835101106816661  0.9903796325937049  0.5075576714007043
  0.2433414673249539  0.2541411168853711  0.7601933140678939
  0.9618422031084224  0.9868605748729383  0.7414555012519037
  0.0048248914852741  0.2573209473358014  0.4709623356263727
  0.2566113952350119  0.4997674285343306  0.9951409410766575
  0.2381073630973901  0.7300370687539176  0.2561185547469119
  0.0036609273208632  0.5235165967827794  0.2325143448165396
  0.9543549989579426  0.7399136322856363  0.0029364204242423
  0.2566769522536364  0.4933566148631818  0.4989351179488622
  0.2396996542595130  0.7409318531307897  0.7464713301444257
  0.9725913394128467  0.5218949758831992  0.7664152281948605
  0.9902474153681295  0.7406153751946777  0.4858718923631022
  0.7490983502032034  0.0022214256485981  0.9859036542466720
  0.7479544820690252  0.2418580223332467  0.2240792297600147
  0.5151097595621293  0.9816422031157090  0.2407528872040055
  0.4834192252532892  0.2517214983252765  0.9987451379321749
  0.7589143524638132  0.9830393335642306  0.4905566286908590
  0.7382320624158685  0.2598930790653380  0.7372074181677184
  0.5016116946088600  0.0158086855760531  0.7401312524063592
  0.4857817522474947  0.2509970207353663  0.5008413928366782
  0.7427129559169624  0.5039227024988931  0.9949643493043248
  0.7637125622822805  0.7391494932960593  0.2638869086403556
  0.4900112213836770  0.4864681332067586  0.2617557340541986
  0.4915611455087293  0.7547159296010039  0.0016688088905702
  0.7481395162673922  0.5020664792863753  0.5029551854033523
  0.7352616650471777  0.7547823647742828  0.7564971318206595
  0.4893690642509438  0.5250413307432686  0.7572603026421134
  0.4903156710083603  0.7621681425855091  0.4967098175344348
