64
Lattice="9.4 0.0 0.0 0.0 9.4 0.0 0.0 0.0 9.4" Properties=species:S:1:pos:R:3 structure_id=01_zrc64_T0300_v100_s17_f0085 label_source=UNLABELED_STRUCTURE_NOT_DFT phase_assignment=unassigned pbc="T T T"
Zr       9.33923267       0.00980025       0.00946595
Zr       0.02642646       2.40532942       2.34262688
Zr       2.37739705       9.39570974       2.31481835
Zr       2.42281972       2.30135792       9.37918589
Zr       9.35143331       9.39647848       4.70092786
Zr       9.38255021       2.37710353       7.04463181
Zr       2.35086005       0.01662257       6.98887107
Zr       2.30927077       2.32300987       4.75305450
Zr       0.09613268       4.71209349       0.06065665
Zr       9.39329401       7.05819344       2.26714561
Zr       2.40616208       4.68906027       2.40386168
Zr       2.33156753       7.09992040       9.30740666
Zr       9.34595025       4.59102987       4.71596403
Zr       9.36842001       7.08103991       6.99883707
Zr       2.34504885       4.74398685       6.98710142
Zr       2.27490656       7.09434379       4.58875326
Zr       4.74933735       9.39757256       0.11506845
Zr       4.75723857       2.29502696       2.36795806
Zr       7.02358834       0.04879960       2.32047636
Zr       7.10735384       2.42956889       0.04250469
Zr       4.66850266       9.38449455       4.76278153
Zr       4.78151779       2.32022034       7.04680933
Zr       7.00350652       9.38160389       7.02328440
Zr       7.04574282       2.32703909       4.72900470
Zr       4.68969273       4.69901037       9.39373440
Zr       4.77492025       7.02230516       2.39201875
Zr       7.02812085       4.70190365       2.38603346
Zr       7.09587901       7.04416974       9.37268850
Zr       4.66859434       4.63851372       4.67664591
Zr       4.68793815       7.08924146       7.10689423
Zr       7.02195702       4.72828170       7.06630390
Zr       6.95879616       7.00255107       4.71907681
C        2.37803292       9.35023573       9.37231078
C        2.38455785       2.30458102       2.41122828
C        9.38420808       9.27903300       2.35491036
C        0.07875275       2.30960565       0.07216741
C        2.39042852       0.02166128       4.71513901
C        2.29478784       2.36360366       7.10321164
C        9.38541859       0.06977054       7.00968138
C        0.02383651       2.28353703       4.73467286
C        2.39449987       4.76436853       0.01082229
C        2.30419802       7.02840538       2.36753078
C        9.36998922       4.67710289       2.30359348
C        9.37998268       7.02054145       9.39554577
C        2.21417199       4.65643949       4.73110882
C        2.33578495       7.13448906       6.99421703
C        9.35597800       4.66170102       6.99812640
C        9.35084946       7.16120683       4.64637592
C        7.02347082       9.35655354       9.29191674
C        7.13041809       2.33576976       2.30311786
C        4.70364427       0.00116994       2.33296361
C        4.69138203       2.40835673       0.03984982
C        6.99800570       0.05229305       4.59708520
C        7.08535831       2.35040960       7.08141875
C        4.72758500       0.03112294       7.08397240
C        4.78093299       2.38114857       4.75916377
C        7.10992249       4.70536114       9.33232643
C        7.08703503       7.01745567       2.31773958
C        4.79988428       4.68804853       2.37293532
C        4.73887458       7.08324668       0.13115007
C        7.04177792       4.63269898       4.74051308
C        7.03590951       7.05875591       7.09938897
C        4.65292974       4.75985327       7.07687712
C        4.68770776       7.01059258       4.73596230
64
Lattice="9.24064718142065 0.0 0.0 0.0 9.24064718142065 0.0 0.0 0.0 9.24064718142065" Properties=species:S:1:pos:R:3 structure_id=02_zrc64_T0300_v095_s17_f0165 label_source=UNLABELED_STRUCTURE_NOT_DFT phase_assignment=unassigned pbc="T T T"
Zr       0.02275807       0.00705515       0.00104164
Zr       0.00286629       2.38359613       2.32436690
Zr       2.24247349       0.04203380       2.25600332
Zr       2.32851598       2.34476432       9.17546054
Zr       0.02288749       0.07803096       4.67451682
Zr       9.23612368       2.30338632       6.99389218
Zr       2.32704313       9.20633140       6.90643686
Zr       2.33381995       2.27979290       4.66854999
Zr       9.14030816       4.63963433       9.22746679
Zr       9.22870523       6.90492573       2.31949194
Zr       2.36597567       4.65443895       2.29205615
Zr       2.27447988       6.96523197       0.00794520
Zr       9.18316081       4.67931398       4.62489340
Zr       9.22679097       6.91455747       6.85785597
Zr       2.29141310       4.57075666       6.93539184
Zr       2.27689606       6.95461894       4.60909530
Zr       4.70364248       0.03257963       9.21084870
Zr       4.58774791       2.23275030       2.34674522
Zr       7.01061454       9.22231394       2.35306486
Zr       6.97957313       2.26697025       9.22487129
Zr       4.62781173       9.21572473       4.60012517
Zr       4.61365265       2.29827521       6.93721432
Zr       6.92729401       0.04237239       6.89106985
Zr       6.94310241       2.31113962       4.66227746
Zr       4.70621681       4.63439717       9.22680255
Zr       4.62439865       6.87680106       2.34874203
Zr       6.89292457       4.53998852       2.33595372
Zr       6.92622870       6.85505060       9.19819900
Zr       4.57307958       4.62339470       4.66956454
Zr       4.62334296       6.96767823       6.98648959
Zr       6.86841381       4.64634675       6.90556020
Zr       6.96917072       6.91264386       4.57861383
C        2.29365488       0.00743068       9.13647103
C        2.28717663       2.25125586       2.30556007
C        0.01688604       9.23746845       2.32515647
C        9.21504113       2.25080167       9.18514537
C        2.25322517       9.20322496       4.62680978
C        2.36155219       2.39516297       6.90086867
C        0.01535495       0.04879306       6.95475804
C        0.00095015       2.26252301       4.61561747
C        2.40195654       4.63448261       0.03599475
C        2.29833316       6.87116996       2.28121207
C        9.18285334       4.57171818       2.28916759
C        9.23229071       6.77561912       9.16126159
C        2.28206643       4.60132619       4.64381941
C        2.31193398       7.01719931       6.95456834
C        9.17791246       4.61041156       6.94415496
C        0.09257712       6.95986102       4.59029606
C        6.96073814       0.00459684       0.00287867
C        6.91115810       2.25697228       2.37252693
C        4.64054845       0.06237842       2.37383321
C        4.62885354       2.30725561       9.20417137
C        6.96447931       0.00948591       4.63752636
C        6.89066619       2.33845920       6.96554505
C        4.69717686       0.05800104       6.90137457
C        4.63748084       2.42210586       4.62330421
C        6.88433083       4.65778301       9.23602106
C        6.88158944       6.85258362       2.31423881
C        4.62711743       4.61475268       2.32375816
C        4.62744579       6.93557256       9.15871159
C        6.93625945       4.60506573       4.73541342
C        6.98797130       6.90575056       6.86837807
C        4.56316974       4.71251738       6.95274001
C        4.66028507       6.94868654       4.56638013
64
Lattice="9.554125754059623 0.0 0.0 0.0 9.554125754059623 0.0 0.0 0.0 9.554125754059623" Properties=species:S:1:pos:R:3 structure_id=03_zrc64_T0300_v105_s17_f0100 label_source=UNLABELED_STRUCTURE_NOT_DFT phase_assignment=unassigned pbc="T T T"
Zr       0.06060137       9.47936470       0.02413726
Zr       0.01885478       2.36838044       2.41568928
Zr       2.28043314       9.53929075       2.41460571
Zr       2.39030687       2.31857574       0.07208552
Zr       9.51211578       0.05130321       4.73339089
Zr       0.03758649       2.36768062       7.14339196
Zr       2.37681533       9.52656984       7.11417463
Zr       2.38043679       2.47117173       4.72810231
Zr       0.01853141       4.67051849       0.00911761
Zr       0.04261223       7.12414533       2.40384192
Zr       2.34258455       4.81443183       2.38895795
Zr       2.39232421       7.21349893       9.54188768
Zr       0.00988429       4.78202746       4.77265027
Zr       9.54582478       7.10343578       7.17747200
Zr       2.35587904       4.72625455       7.15575276
Zr       2.37057091       7.19211216       4.80781198
Zr       4.74845409       9.49814826       9.53909558
Zr       4.77562995       2.38662704       2.43539732
Zr       7.16769551       9.54736637       2.37691373
Zr       7.14050255       2.48238713       9.53372211
Zr       4.71164837       9.47066475       4.72330821
Zr       4.80728721       2.41937277       7.15871404
Zr       7.24492616       0.00961883       7.18184867
Zr       7.14261677       2.43622508       4.84609364
Zr       4.76861008       4.81698556       9.51726867
Zr       4.72251210       7.19405333       2.36002348
Zr       7.12557762       4.73962800       2.36859365
Zr       7.21697763       7.16835195       0.07217448
Zr       4.85605417       4.79892560       4.66415737
Zr       4.73397835       7.21744124       7.20280472
Zr       7.17531955       4.88763532       7.23782829
Zr       7.22978073       7.13119637       4.72116611
C        2.42410823       9.54014181       0.02355597
C        2.36948321       2.45187856       2.43304132
C        0.05182653       9.54360486       2.37456658
C        0.05983446       2.35450448       9.52171823
C        2.31877020       0.04166598       4.74670173
C        2.46171946       2.35830929       7.17540546
C        0.01321254       9.45741150       7.12798275
C        9.54757060       2.41598169       4.84275131
C        2.37323251       4.79441573       9.50904082
C        2.35728364       7.16212912       2.36370220
C        9.52033600       4.65232638       2.49667545
C        0.06022124       7.13463063       0.03494308
C        2.44162456       4.83225743       4.76389517
C        2.41091359       7.18603364       7.15815944
C        9.54500130       4.75305523       7.19221848
C        9.53375380       7.12562642       4.81150925
C        7.28344777       0.06468728       0.00904898
C        7.22123742       2.48735611       2.42245843
C        4.70746748       0.04570351       2.36044995
C        4.79638392       2.39724437       0.02310556
C        7.20213473       0.05266924       4.71050419
C        7.14352423       2.35112803       7.15160809
C        4.72744426       9.49289635       7.14054365
C        4.75500625       2.48902071       4.77990112
C        7.18318194       4.69605228       0.08115099
C        7.24069746       7.14355146       2.43750502
C        4.69078923       4.77264083       2.36415660
C        4.82887834       7.19688850       9.54642457
C        7.19679903       4.73926727       4.81166881
C        7.21516243       7.19875897       7.13663944
C        4.75764405       4.88739847       7.14579392
C        4.84374024       7.20531778       4.79606639
64
Lattice="9.4 0.0 0.0 0.0 9.4 0.0 0.0 0.0 9.4" Properties=species:S:1:pos:R:3 structure_id=04_zrc64_T1500_v100_s17_f0085 label_source=UNLABELED_STRUCTURE_NOT_DFT phase_assignment=unassigned pbc="T T T"
Zr       9.34393976       0.18445802       9.24201974
Zr       0.02569458       2.23268659       2.32249458
Zr       2.22696925       0.10609687       2.35672252
Zr       2.27440634       2.43882839       0.03554685
Zr       0.02517165       0.12528256       4.61394150
Zr       0.09922284       2.35769596       7.05622334
Zr       2.18204300       0.04373939       7.06215792
Zr       2.42813365       2.43223259       4.65130044
Zr       0.10581766       4.72787991       0.05796433
Zr       9.38345558       7.01047766       2.28760464
Zr       2.45971438       4.72371951       2.47358847
Zr       2.35069936       7.05282548       0.04136191
Zr       0.12322952       4.85510961       4.66245152
Zr       0.04377350       7.23782401       7.03473834
Zr       2.54164008       4.56601338       7.06193261
Zr       2.35583286       7.15140279       4.87329836
Zr       4.63832550       0.01182242       0.21653590
Zr       4.62535295       2.41660031       2.46333440
Zr       6.97819145       9.33099297       2.44576563
Zr       6.91464904       2.19538177       9.37347702
Zr       4.75509542       0.07680275       4.62461989
Zr       4.72516089       2.13480259       7.03305238
Zr       7.01387916       9.31585273       7.09943095
Zr       7.08765913       2.27779512       4.58908268
Zr       4.63151693       4.44874491       9.24802479
Zr       4.70624312       7.03190129       2.29914738
Zr       6.98982036       4.79423467       2.25281486
Zr       6.98488268       7.03722789       0.01324215
Zr       4.78853683       4.69420113       4.84006899
Zr       4.69981071       7.08542709       7.06469660
Zr       7.19174187       4.57753235       6.92613794
Zr       6.98668961       7.07024302       4.76344868
C        2.35147642       0.20568332       0.17404781
C        2.42200112       2.46773366       2.49613060
C        9.34441209       9.14084759       2.29937853
C        9.35583156       2.53109901       9.31606501
C        2.26866723       0.10680331       4.71202435
C        2.52903752       2.26982268       7.10552356
C        0.11368619       0.15528177       6.99545253
C        0.21019617       2.39357482       4.65369833
C        2.30406002       4.64789066       9.29755996
C        2.40183646       7.03752017       2.54070006
C        9.16095311       4.89787300       2.12447409
C        9.20418484       7.16230948       9.29917425
C        2.47273265       4.76355761       4.74062338
C        2.50894933       7.04457361       7.23481578
C        0.22661975       4.79147993       6.96057674
C        9.37267084       7.16543526       4.79849242
C        7.07271860       9.28538580       9.16886296
C        6.99934133       2.20119067       2.32654362
C        4.34794128       9.06467422       2.35684877
C        4.66690167       2.14496151       9.37865990
C        6.87633147       0.04764219       4.71282157
C        7.04385241       2.27741948       6.95417292
C        4.53238652       9.20866979       6.85648458
C        4.60853049       2.23334630       4.65766377
C        6.79583398       4.33192335       0.07777379
C        6.95339206       6.94051733       2.48107194
C        4.67430326       4.63775590       2.30013710
C        4.68298837       6.93823631       9.23508066
C        7.17647853       4.81578386       4.41663487
C        7.05539217       6.94588849       7.07858038
C        4.82713242       4.35199441       6.99188541
C        4.57611567       7.08549667       4.80314059
64
Lattice="9.24064718142065 0.0 0.0 0.0 9.24064718142065 0.0 0.0 0.0 9.24064718142065" Properties=species:S:1:pos:R:3 structure_id=05_zrc64_T1500_v095_s17_f0180 label_source=UNLABELED_STRUCTURE_NOT_DFT phase_assignment=unassigned pbc="T T T"
Zr       0.06557913       0.09280320       9.19198618
Zr       0.07913651       2.37645252       2.37581919
Zr       2.07565381       9.13910575       2.28286749
Zr       2.28851432       2.44450783       0.02629794
Zr       9.13497074       0.04913310       4.62546606
Zr       9.24056626       2.30230464       6.98418871
Zr       2.28239827       0.05836569       7.00653248
Zr       2.40963402       2.24294217       4.65778272
Zr       0.02708822       4.65489782       0.15269807
Zr       9.11609065       6.89366797       2.35758840
Zr       2.34118384       4.63615243       2.29630003
Zr       2.34430949       6.84472611       9.21288603
Zr       0.04931452       4.53646561       4.53807401
Zr       0.06678534       6.94942147       7.03043417
Zr       2.50082128       4.69120902       6.87281271
Zr       2.17799045       7.05559550       4.66913273
Zr       4.42696097       9.15515820       9.11862713
Zr       4.50233066       2.32805211       2.19416673
Zr       7.05169531       0.00905066       2.27137841
Zr       6.91309120       2.21992806       0.07474508
Zr       4.50474197       9.11997816       4.56473453
Zr       4.63861197       2.41115436       6.96639216
Zr       6.83815633       9.22377736       6.94298990
Zr       7.13025355       2.33783690       4.56399540
Zr       4.91679558       4.65078058       0.10812534
Zr       4.67977472       7.04913686       2.22102653
Zr       6.83999040       4.57823285       2.47491751
Zr       6.97550513       6.91467395       9.11585728
Zr       4.56286460       4.60412151       4.59695093
Zr       4.61210442       6.85373562       6.86256890
Zr       6.92627078       4.56761669       7.00254462
Zr       6.74706032       6.86360943       4.59020137
C        2.40770933       0.02461157       0.02015767
C        2.46992271       2.44636653       2.37110805
C        0.00593974       0.03979739       2.23366377
C        0.07640379       2.52836092       0.01861763
C        2.48976674       9.20267721       4.59167386
C        2.39356262       2.41106514       6.83066926
C        0.08440106       9.22187931       7.05525378
C        0.12127484       2.33767749       4.42729609
C        2.34464286       4.74934987       0.20078406
C        2.30847821       6.98261899       2.23926165
C        9.18750117       4.48848965       2.33822200
C        9.21713347       7.05730775       9.14408163
C        2.18987852       4.45908742       4.64300871
C        2.15182703       6.84148172       6.96782643
C        9.10761791       4.64198150       6.94880559
C        9.09254948       6.88803169       4.71004307
C        7.09910352       0.03202344       9.22456149
C        7.14653524       2.42413646       2.36960141
C        4.66396794       9.11958657       2.33399620
C        4.48125251       2.32820017       0.08900548
C        7.05936081       0.12546701       4.59119138
C        6.80934584       2.35404167       6.85753103
C        4.70080153       0.08296041       6.94691318
C        4.66059507       2.26426355       4.53460444
C        7.00303280       4.60627968       0.04592928
C        7.05708110       6.91236153       2.14384002
C        4.52349308       4.62915245       2.17748334
C        4.61511269       6.75628437       8.94429330
C        6.96815087       4.50961596       4.54520095
C        7.06340138       6.90424732       6.79205517
C        4.80831423       4.42788684       7.00920303
C        4.63180350       6.78021907       4.50634247
64
Lattice="9.554125754059623 0.0 0.0 0.0 9.554125754059623 0.0 0.0 0.0 9.554125754059623" Properties=species:S:1:pos:R:3 structure_id=06_zrc64_T1500_v105_s17_f0190 label_source=UNLABELED_STRUCTURE_NOT_DFT phase_assignment=unassigned pbc="T T T"
Zr       0.10577254       0.02013864       0.16525745
Zr       0.13697521       2.40269860       2.43015811
Zr       2.31520354       0.01061419       2.29610776
Zr       2.40789824       2.48448745       9.54929185
Zr       9.32542148       9.53063588       4.79940613
Zr       9.44841943       2.34675162       7.17113959
Zr       2.37042201       0.06693639       7.29805863
Zr       2.61206718       2.22175676       4.70820345
Zr       0.21709639       4.78294765       0.12315918
Zr       9.24808847       7.30853531       2.17216464
Zr       2.57069994       4.83807649       2.39960689
Zr       2.39493477       7.07901649       9.52324178
Zr       9.48314339       4.78039283       4.72154001
Zr       9.29809190       7.20102025       7.28613290
Zr       2.33084587       4.75437124       7.17807720
Zr       2.43245371       7.08864012       4.82421519
Zr       4.63745424       9.43540197       0.07928875
Zr       5.01068490       2.32598143       2.41213205
Zr       7.23216002       0.15990671       2.39038691
Zr       7.20873170       2.39122272       9.51380153
Zr       4.74893406       9.49810848       4.61926900
Zr       4.81311413       2.35692938       7.22208622
Zr       7.11534865       0.06216264       7.16430676
Zr       7.02973743       2.40062053       4.79541648
Zr       4.91923194       4.91189318       9.51434870
Zr       4.73495334       7.00457468       2.45298595
Zr       7.29175288       4.83096006       2.27383382
Zr       7.06018795       7.14839885       9.43806167
Zr       4.92702901       4.72804288       4.77528860
Zr       4.87273431       7.03724260       7.18942451
Zr       7.22679286       4.99657731       7.24591383
Zr       7.07347256       7.13407274       4.80379811
C        2.49494294       9.47158334       0.00873996
C        2.40978264       2.31347784       2.33535595
C        0.06784204       0.03372033       2.35960223
C        9.55410458       2.36070748       9.52549660
C        2.70869125       9.46221155       4.84926982
C        2.32491498       2.42809619       7.26298252
C        9.18956136       9.42859003       7.08395910
C        0.04609762       2.45847669       4.49963338
C        2.45169754       4.77484086       9.50770169
C        2.27490769       6.97486596       2.44698888
C        0.03497696       5.00174340       2.22147129
C        9.11802767       7.06922789       0.02805493
C        2.45232388       4.71359114       4.76688886
C        2.29012064       7.07895610       7.13188096
C        9.29225996       4.98625023       7.32242747
C        9.46094833       7.07593243       4.64208116
C        7.15697984       0.02122378       9.41944749
C        7.14605118       2.31074196       2.14088114
C        4.92142342       9.37873305       2.30018336
C        4.61864807       2.40497885       9.54213664
C        7.25076316       9.39208141       4.68683972
C        7.05316196       2.48305116       7.04337238
C        4.79246121       0.15103817       7.07130706
C        4.64121995       2.39805710       4.78510165
C        7.09597298       4.81454087       9.50601451
C        7.29660586       7.06192721       2.52120871
C        4.68162883       4.64777772       2.50084720
C        4.69643700       7.21065090       0.01594401
C        7.14781902       4.79680628       4.80529709
C        7.02478241       7.21128563       7.22766873
C        4.67549358       5.01631090       7.23496016
C        4.68453758       7.28185028       4.74562806
64
Lattice="9.4 0.0 0.0 0.0 9.4 0.0 0.0 0.0 9.4" Properties=species:S:1:pos:R:3 structure_id=07_zrc64_T3000_v100_s17_f0045 label_source=UNLABELED_STRUCTURE_NOT_DFT phase_assignment=unassigned pbc="T T T"
Zr       0.09239407       9.29420547       0.12802733
Zr       0.07603897       2.27660714       2.22804211
Zr       2.21382699       0.04495720       2.32881415
Zr       2.19148086       2.43046866       0.11312857
Zr       9.17852003       9.29554004       4.73899168
Zr       0.02853930       2.47594067       6.81921823
Zr       2.17366770       9.39166338       6.97044374
Zr       2.36953044       2.22654210       4.64773457
Zr       0.13455043       4.89742219       0.12698640
Zr       0.05326409       7.12956463       2.43340027
Zr       2.33423041       4.92277026       2.44764775
Zr       2.49383638       7.32165822       9.24567225
Zr       0.11724155       4.70948059       4.67073444
Zr       0.00701892       7.06633198       7.02285733
Zr       2.54270641       4.95339672       7.16295118
Zr       2.37417941       7.13757664       4.83926675
Zr       4.76576431       9.32691075       0.30548041
Zr       4.55783444       2.26846819       2.33194865
Zr       7.13384387       9.32004739       2.43000551
Zr       6.92818743       2.00834667       0.32845525
Zr       4.17063396       9.20977619       4.84651016
Zr       4.55993883       2.45249330       6.91869221
Zr       6.85680500       0.30530840       7.14940051
Zr       7.05903719       2.19035093       4.65312916
Zr       4.77950669       4.76991550       0.04661431
Zr       4.82723782       7.11124189       2.43680532
Zr       7.35506271       4.21756875       2.18694178
Zr       7.28065873       6.82841378       0.10319600
Zr       4.67835995       4.40644213       4.53075830
Zr       5.05116228       7.20425643       7.09167930
Zr       6.97060293       4.80825325       6.77140909
Zr       6.98278338       7.02586441       4.46171376
C        2.23944803       0.03152849       0.19687788
C        2.22842940       2.45188176       2.48808846
C        9.34766868       9.22701685       2.31362602
C        9.28238767       2.34276944       0.02559382
C        1.94774464       9.10556949       4.60648403
C        2.23722843       2.30506253       6.98011516
C        9.17353246       0.14571047       6.77459913
C        9.30039678       2.43832647       4.42387985
C        2.34579227       4.80496997       9.29172543
C        2.23397916       7.19668632       2.03853585
C        0.13234695       4.75975974       2.47218758
C        0.23314258       7.41541376       9.19803556
C        2.32903436       4.75804306       4.58309998
C        2.27299573       7.09675431       7.14872557
C        0.21530013       4.94373029       6.96969832
C        0.29451094       7.11842711       4.61436785
C        6.85499912       0.20765830       9.26604836
C        7.00222263       2.16875044       2.24926228
C        4.66306963       9.37808303       2.42018094
C        4.46155828       2.26017318       0.13921063
C        6.79321069       9.22417458       4.61026074
C        7.22585032       2.46644383       6.92199798
C        4.42131119       9.29231219       7.20012806
C        4.93011977       2.10895614       4.54994088
C        6.95618090       4.89006952       9.00840728
C        6.98049775       7.20216200       2.21885097
C        4.91857833       5.02152136       2.40002829
C        4.71973253       7.07223696       0.08782182
C        7.09028214       4.59163942       4.44403292
C        7.16762573       7.42786842       6.68206585
C        4.61682468       4.59625191       6.98882351
C        4.73249937       7.05803670       4.68228106
64
Lattice="9.24064718142065 0.0 0.0 0.0 9.24064718142065 0.0 0.0 0.0 9.24064718142065" Properties=species:S:1:pos:R:3 structure_id=08_zrc64_T3000_v095_s17_f0030 label_source=UNLABELED_STRUCTURE_NOT_DFT phase_assignment=unassigned pbc="T T T"
Zr       0.03561288       0.13038930       9.20429519
Zr       0.03195322       2.38397518       2.56152430
Zr       2.25399640       8.97785487       2.23179357
Zr       2.24715528       2.37600165       0.06376688
Zr       9.21974880       0.20149834       4.62202986
Zr       9.16687913       2.17812622       7.09491144
Zr       2.43243758       9.07627957       6.98730138
Zr       2.22140383       2.55579828       4.40195519
Zr       9.04558084       4.47929177       8.84232282
Zr       0.18296413       6.90639362       2.50112471
Zr       2.20015011       4.77402043       2.14050320
Zr       2.51229441       6.88741844       0.00243886
Zr       9.09384842       4.76397134       4.49372358
Zr       9.11868420       6.90541480       7.01546188
Zr       2.22187288       4.44027718       7.00780437
Zr       2.42275429       6.70529939       4.58041215
Zr       4.68834027       9.01470095       0.08853324
Zr       4.63135893       2.21070591       2.19497107
Zr       7.14611956       0.27152373       2.24992902
Zr       6.61650177       2.29441642       8.95381863
Zr       4.58363989       9.04231044       4.33046498
Zr       4.60314258       2.35642003       6.78868303
Zr       6.98281353       0.00421070       7.07309686
Zr       6.84348249       2.58067038       4.56378375
Zr       4.62358127       4.74165779       0.25423316
Zr       4.74532759       6.76992126       2.58630216
Zr       6.99336800       4.66677166       2.33413046
Zr       7.10185054       6.80950775       0.25112130
Zr       4.62299880       4.57228344       4.46050402
Zr       4.78209509       7.00586780       6.98324559
Zr       6.72822144       4.67438901       6.76409211
Zr       6.84787945       6.97127988       4.82843771
C        2.56892769       0.08280696       0.03741660
C        2.28143153       2.29688773       2.56531258
C        0.19559503       0.36081245       2.49212209
C        9.09739981       2.29854239       0.00856826
C        2.28014588       0.07575777       4.66380774
C        2.13312883       2.12025598       7.24674956
C        0.16037637       9.19654997       7.22373227
C        9.16240107       2.72079524       4.92866516
C        2.50133858       4.51117701       9.14297739
C        2.65884662       7.00816324       2.25903960
C        0.30087112       4.72929683       2.11290199
C        9.02778592       6.72848093       0.08097630
C        2.48799386       4.67308818       4.42219951
C        2.33188040       7.08604660       7.15524438
C        9.19648326       4.42466187       6.62897512
C        0.17290082       7.09865532       4.61415609
C        7.09324591       9.16236129       0.04912217
C        6.77440319       2.40548036       2.24148309
C        4.60218500       9.19095027       2.28066405
C        4.62682552       2.32105439       8.90005541
C        6.92970336       0.00674640       4.91978831
C        6.63558315       2.03779388       6.81746023
C        4.79973098       9.15443432       7.02373291
C        4.69903412       2.57932604       4.48294353
C        6.94522559       4.69460922       9.14842353
C        7.10617658       6.90068739       2.49419834
C        4.61509856       4.62794403       2.38596711
C        4.73993449       6.88731804       0.10542890
C        6.71459261       4.68661095       4.67055111
C        6.92905878       7.02789810       7.11776302
C        4.59109240       4.80089080       6.80375500
C        4.57662652       6.87864291       4.74750047
64
Lattice="9.554125754059623 0.0 0.0 0.0 9.554125754059623 0.0 0.0 0.0 9.554125754059623" Properties=species:S:1:pos:R:3 structure_id=09_zrc64_T3000_v105_s17_f0005 label_source=UNLABELED_STRUCTURE_NOT_DFT phase_assignment=unassigned pbc="T T T"
Zr       0.13563525       0.10032599       9.44519971
Zr       9.50996643       2.29080732       2.41674762
Zr       2.26558017       9.49201998       2.38149752
Zr       2.08566634       2.46820579       0.07988288
Zr       0.29132708       0.17289108       4.94731416
Zr       0.24504085       2.53563212       6.99751709
Zr       2.56753760       0.06009258       7.30379640
Zr       2.44660505       2.30524646       4.64592781
Zr       0.22877201       4.99193159       9.52653197
Zr       9.47656116       6.93506212       2.33119804
Zr       2.39387580       4.78564839       2.52532036
Zr       2.59710555       7.17553846       9.41720078
Zr       9.32185285       4.83848642       4.72616917
Zr       0.03022661       7.33280524       7.08814824
Zr       2.23576108       5.19840840       7.17816123
Zr       2.32354551       7.04042199       4.69508048
Zr       4.80299358       9.32336766       0.10586927
Zr       5.00306528       2.24407762       2.69500719
Zr       7.41159726       9.50536292       2.37188519
Zr       7.04819345       2.38788381       9.33243854
Zr       4.83549339       9.55223788       4.57814051
Zr       4.69059792       2.36747775       7.12012593
Zr       7.11893776       0.02604274       6.89731720
Zr       7.33493957       2.43290391       4.92538561
Zr       4.56648091       4.45678273       0.13486775
Zr       4.86319413       7.02717603       2.34026675
Zr       6.98224516       4.75907518       2.43005664
Zr       7.24723544       7.16758670       0.19497476
Zr       4.70424656       4.70097981       4.91970294
Zr       4.58031597       7.17183222       6.97806688
Zr       7.15321909       4.96718391       7.21530849
Zr       6.94867558       7.06655557       4.90103453
C        2.17242285       0.13339930       0.04168079
C        2.67889625       2.56667030       2.26139900
C        9.47067823       0.26630515       2.04767826
C        9.31863709       2.57450121       9.51863978
C        2.41528310       9.50172869       4.49614064
C        2.38113225       2.35874220       7.32482114
C        0.08428280       9.40530313       7.13534674
C        0.35369893       2.49761913       4.57668598
C        2.59047796       5.05330402       0.30545601
C        2.52401459       7.46482900       2.02021710
C        9.27778909       4.74512809       2.41604986
C        0.07673157       7.14060069       9.50200648
C        2.51038313       4.58475936       4.67981193
C        2.33439681       7.36873582       7.06061246
C        9.41716392       4.94737916       7.25231546
C        9.51380750       6.79291738       4.70184059
C        6.82582964       9.34196090       0.33586990
C        7.19247689       2.71965663       2.63542347
C        4.46397548       9.42212800       2.21129233
C        4.77624891       1.81266133       9.53497611
C        7.05561584       9.52921994       4.65988728
C        7.32667651       2.20066080       7.10918737
C        4.80723127       0.26989469       7.44778746
C        4.77678469       2.13588105       4.58311028
C        6.97778488       4.86409915       0.25595071
C        7.14805561       7.00891182       2.44621695
C        4.57425660       4.71111793       2.67850399
C        4.73061456       6.85595680       0.04774387
C        7.16706695       4.81630399       4.73852956
C        7.09893474       7.09540937       7.44124031
C        4.86115400       4.81111767       7.12156371
C        4.49531203       7.31661352       4.87481744
64
Lattice="9.4 0.0 0.0 0.0 9.4 0.0 0.0 0.0 9.4" Properties=species:S:1:pos:R:3 structure_id=10_zrc64_T4500_v100_s17_f0005 label_source=UNLABELED_STRUCTURE_NOT_DFT phase_assignment=unassigned pbc="T T T"
Zr       9.34770370       9.32572089       9.28178460
Zr       9.27330765       2.50239747       2.37276787
Zr       2.08495767       0.15498540       2.00131865
Zr       2.30763401       2.69151395       9.28167062
Zr       9.28557990       0.02893429       4.65935508
Zr       0.00838375       2.16405388       7.15557207
Zr       2.46607188       0.12801348       6.88165413
Zr       2.52197534       1.73236576       4.95566441
Zr       9.22752193       4.76967924       9.03109689
Zr       0.24526910       7.01422638       2.20821350
Zr       2.59948007       5.13646081       2.20292930
Zr       2.38247122       7.26084000       9.33953338
Zr       0.04811564       4.74028933       4.75308719
Zr       0.00874397       7.23364841       6.64980554
Zr       2.49586114       4.68676602       7.00066761
Zr       2.57277005       6.80619186       4.97693593
Zr       4.73120689       0.05515581       0.30470620
Zr       4.70574641       2.25445086       1.97075846
Zr       7.05094791       9.31383131       2.24394338
Zr       7.29944388       2.24912538       9.17914413
Zr       4.78338888       9.03487997       5.18955907
Zr       4.77903658       2.08821508       7.11981096
Zr       6.97448533       0.02352983       6.90581841
Zr       6.71765260       2.35662881       4.52372977
Zr       4.70247040       4.92614351       0.08408371
Zr       4.82975376       6.90752124       2.78872053
Zr       6.98969498       4.43710071       2.11495529
Zr       7.05578548       7.06045261       0.32196787
Zr       4.64784847       4.62860115       5.01336830
Zr       4.79190089       7.31981825       7.73945235
Zr       7.29650917       4.66549666       7.13263784
Zr       7.18285150       6.77156229       4.64205879
C        2.11771981       0.35050648       9.16511799
C        1.72516775       5.06397859       0.10512016
C        9.31474892       0.40742405       2.20398881
C        1.43500720       3.43068646       3.67162141
C        2.59949049       9.11841927       4.70382087
C        2.59296858       2.31473931       7.21243029
C        0.29006556       9.25641158       7.02957926
C        9.25252043       2.43266491       4.90565492
C        2.00845997       2.50630096       2.30234755
C        0.92832397       8.11175502       3.97886705
C        7.15711430       4.62493799       5.03625761
C        9.15031476       7.10646405       9.23289013
C        2.47449615       7.02307010       2.39913841
C        2.58797170       6.85938246       7.01764737
C        0.09776876       4.81395516       7.08800338
C        0.17520054       6.96964191       4.36953736
C        6.98735956       9.05824615       0.20558802
C        6.96415580       2.31929233       2.25779822
C        4.53243931       0.22014491       3.07644917
C        5.14436417       2.61272164       9.36239969
C        7.07368510       9.10698732       4.87892901
C        7.17849675       2.23682466       7.15943451
C        4.64470819       9.12383529       7.64114609
C        4.85293964       1.82785398       4.74149192
C        6.84987230       4.52962149       9.37216700
C        7.05797180       6.64125458       2.42276687
C        4.83842673       4.77007754       2.42927012
C        4.61528916       7.21834945       0.70231836
C        3.87516807       5.88803658       6.43713331
C        7.17890652       6.98713577       7.27740805
C        2.38719480       4.20113034       4.45004084
C        4.60598462       6.70414783       5.24129578
64
Lattice="9.24064718142065 0.0 0.0 0.0 9.24064718142065 0.0 0.0 0.0 9.24064718142065" Properties=species:S:1:pos:R:3 structure_id=11_zrc64_T4500_v095_s17_f0085 label_source=UNLABELED_STRUCTURE_NOT_DFT phase_assignment=unassigned pbc="T T T"
Zr       9.07384664       9.13838609       0.26851261
Zr       0.23817299       2.16506179       2.49020354
Zr       2.22132350       0.01902602       2.48296418
Zr       1.94173941       2.27301506       0.29664758
Zr       0.01987579       8.92917280       4.21134404
Zr       9.02774294       2.14504719       7.12557399
Zr       2.29228489       0.19641280       6.80685184
Zr       2.73659677       2.72033962       4.55096874
Zr       9.16398188       4.92878459       9.00505527
Zr       9.08851836       6.61075235       2.21616731
Zr       2.29852648       4.64359917       2.39849610
Zr       2.25369446       6.96300756       9.11644611
Zr       0.11833071       4.49191023       4.45640627
Zr       0.02162871       6.87094221       6.69386983
Zr       2.06067181       4.68137306       7.21952813
Zr       2.37071639       6.75857328       4.74631414
Zr       4.35549394       0.44046640       8.99979672
Zr       4.76826098       2.39975400       2.52266995
Zr       6.72918240       9.02329505       2.40905331
Zr       6.90575799       2.24967811       0.23231131
Zr       4.68703932       9.15799087       4.45866323
Zr       4.26274897       2.80255147       6.78768944
Zr       6.79142755       0.09050476       7.07867845
Zr       7.11078032       2.19619101       4.75307321
Zr       4.74008991       4.80162134       0.14396577
Zr       4.52890002       6.91684186       2.18253482
Zr       7.19009044       4.20228993       2.34363766
Zr       6.74179778       7.02296434       9.10069277
Zr       4.79110501       4.59250287       4.55705823
Zr       4.71066338       6.73052173       6.87399586
Zr       6.91394199       4.60578518       6.94180474
Zr       6.79781178       6.75143061       4.30807967
C        2.15717186       9.13823144       9.19615604
C        2.01767627       2.52629419       2.59235206
C        0.00938678       0.00750255       2.27316209
C        8.98317593       2.70636071       0.05212188
C        1.95078623       6.82137425       7.05210419
C        2.15231563       2.70459077       7.00481087
C        2.07635791       0.71238343       4.68577060
C        0.10198867       2.16823292       4.74270297
C        2.42268836       4.69054135       0.34225862
C        2.55991751       6.79300898       2.71128016
C        0.14573820       4.51612205       1.87094896
C        8.91631198       6.97753983       0.26646649
C        2.21048247       4.82593596       4.66681481
C        8.89390662       6.66154649       4.46117898
C        8.93428804       4.63949251       6.50104678
C        1.16781495       1.81414578       5.58735667
C        6.92780550       0.07483746       9.23780491
C        6.79225982       1.92522228       2.18131900
C        4.56452160       0.02440777       2.58198686
C        4.41950656       2.86057787       0.33579506
C        6.89638771       8.88415944       4.62003986
C        6.92141161       2.29825784       6.72029277
C        4.12595793       9.00669901       6.81201436
C        4.75946856       2.16642948       4.62270706
C        6.86155942       4.92526734       0.10550771
C        7.13159684       6.64391123       2.34927744
C        4.28047398       4.82857784       2.59817443
C        4.30741017       7.17077849       0.05597136
C        7.33740255       4.45206667       4.59724034
C        6.77946124       6.90150612       6.69959450
C        4.05841351       4.83642999       7.34543995
C        4.56345582       6.41790323       5.04088965
64
Lattice="9.554125754059623 0.0 0.0 0.0 9.554125754059623 0.0 0.0 0.0 9.554125754059623" Properties=species:S:1:pos:R:3 structure_id=12_zrc64_T4500_v105_s17_f0010 label_source=UNLABELED_STRUCTURE_NOT_DFT phase_assignment=unassigned pbc="T T T"
Zr       0.38972720       9.31972644       0.08126326
Zr       9.25616568       2.05888312       2.48114437
Zr       2.25424863       0.65269895       2.55647604
Zr       2.52204914       1.84634303       0.10485427
Zr       0.06253780       0.15135523       4.70885577
Zr       9.43191679       2.45587467       7.51128640
Zr       2.34443494       8.99333310       6.76118235
Zr       2.02697636       2.35625532       5.28007450
Zr       0.55768616       4.34730543       0.40218097
Zr       9.21550515       7.24447198       1.54912071
Zr       2.70851588       5.43229245       2.31792620
Zr       2.52311165       6.88428009       0.02510349
Zr       0.21214572       5.04466555       4.90566033
Zr       0.00723442       6.55881893       7.54427964
Zr       2.66300469       4.41936875       7.43830864
Zr       2.17134142       7.21594057       4.34821782
Zr       4.73876501       9.43261917       0.03781154
Zr       4.67244816       2.43096104       2.37267886
Zr       7.06333348       0.10146911       2.51683263
Zr       7.29403032       1.93316306       0.29167181
Zr       4.43731680       0.75104786       4.97135480
Zr       4.98069792       2.25515114       7.87787810
Zr       7.35253465       9.54922217       6.68501617
Zr       7.20004006       2.33264256       5.11524123
Zr       4.90079886       4.64327211       9.50217824
Zr       4.22112086       7.69131499       2.62980523
Zr       7.27545003       5.03193846       2.55821688
Zr       6.80601599       7.43152915       9.19112872
Zr       5.13185414       4.97275137       5.13024649
Zr       4.54328219       7.21273389       6.83615464
Zr       7.41218728       4.71202700       7.20242161
Zr       7.43692331       7.41136168       4.72554644
C        2.44557565       9.08388633       0.22164965
C        1.81386319       3.09185532       2.53324614
C        9.45610821       0.15250299       1.94159473
C        0.01790842       1.99792014       0.12072003
C        1.47279178       1.39886434       7.41273342
C        2.39085390       2.30172873       7.42913683
C        0.13772292       8.55801336       6.79800562
C        0.70724980       4.02960672       2.68600642
C        2.84949500       4.28786294       0.32566666
C        5.52205549       6.73512843       3.12795039
C        9.48395817       5.20617517       2.76015142
C        7.56497844       4.51117954       9.44907219
C        0.30882422       4.25622732       7.19069965
C        2.35814746       6.44994959       6.51812835
C        9.31807519       2.03920288       5.13955494
C        0.22733597       7.52007125       3.96096966
C        7.30733275       9.32718076       0.26724750
C        7.26696977       2.76019735       2.78025214
C        4.40399191       0.60077361       2.48729736
C        5.08589450       0.26688480       7.09425205
C        7.26036100       0.32477482       4.43142990
C        7.07413756       1.95426091       7.74244021
C        5.13630697       1.88931380       0.10001883
C        4.41478101       2.92489198       5.06897485
C        2.48762350       9.55221177       4.32603000
C        8.24946593       5.94037259       0.02416186
C        5.17972152       5.22848641       2.55523935
C        4.60845694       7.11399662       0.03614702
C        7.20779486       4.97796798       5.19895501
C        7.26023223       7.26300496       7.20564284
C        4.95115871       4.43902579       7.23974549
C        5.08781821       7.06148254       4.69028792
64
Lattice="9.4 0.0 0.0 0.0 9.4 0.0 0.0 0.0 9.4" Properties=species:S:1:pos:R:3 structure_id=13_zrc64_T5250_v100_s17_f0080 label_source=UNLABELED_STRUCTURE_NOT_DFT phase_assignment=unassigned pbc="T T T"
Zr       8.34308867       9.09722998       9.09485506
Zr       8.74136872       3.65061105       2.86775713
Zr       3.18851382       8.77042636       2.50453729
Zr       4.15308489       2.07052869       0.74378278
Zr       7.16534797       7.57650252       3.52864744
Zr       8.50215161       3.13145551       0.09902152
Zr       2.28155104       1.19893786       8.05388400
Zr       1.82888599       2.18907818       1.66998665
Zr       5.96633015       6.24956051       7.44474954
Zr       1.29361390       8.00441521       0.19579294
Zr       2.18057506       5.75814391       2.50576351
Zr       3.97914668       5.01797441       0.30473028
Zr       1.20159059       2.08274210       4.88342492
Zr       0.57790257       8.72707317       6.39039839
Zr       0.45218441       4.17589861       6.66281075
Zr       0.90588599       7.71512176       3.84618440
Zr       5.70268631       7.94450597       0.56331216
Zr       4.88453025       0.37181087       4.53253923
Zr       9.35015829       0.96499628       2.24045325
Zr       1.53914116       4.31784946       9.37932616
Zr       2.96894072       6.73431559       5.30941734
Zr       3.85866428       3.71508427       4.34023212
Zr       6.50289376       9.36073066       6.54496460
Zr       7.20035618       2.42073487       5.09672974
Zr       6.56626284       3.36708071       7.59731564
Zr       4.93788195       6.14433340       2.77844079
Zr       8.99780755       6.05681012       5.26099085
Zr       6.36316478       3.87951999       1.89803178
Zr       5.82728550       5.03491048       5.49833219
Zr       4.02151969       7.84800484       7.74872595
Zr       1.82261751       6.04958717       7.80887787
Zr       8.26877234       6.24757587       0.23350811
C        3.88154115       4.06964463       7.04707743
C        0.13199177       5.83781018       3.17104118
C        8.67499879       8.18194451       2.39890778
C        7.90278232       1.95994465       7.17954682
C        2.39036445       0.14647144       6.23473229
C        4.73374361       0.70089966       7.55939537
C        2.78909363       4.70700049       6.53769683
C        4.33688324       2.03712894       7.32843980
C        8.37600615       9.22107968       3.94137416
C        3.48598368       7.13456115       0.81091016
C        5.65082926       0.93731047       8.42444484
C        7.18522771       0.32749533       3.95450170
C        3.53373790       3.89602992       2.06186863
C        5.08169490       2.39877093       5.96390161
C        5.99462674       5.44094629       0.03735138
C        5.42339116       1.79421947       3.11872592
C        7.11009879       9.23277082       1.85568833
C        8.65441180       6.42973195       7.41832123
C        0.22260890       5.21110814       1.59774300
C        6.41767289       1.06554902       2.31234111
C        0.10091543       1.28252203       8.67667310
C        1.70877401       0.76264384       3.68696227
C        5.10236199       6.98573454       5.70695179
C        6.87693312       5.36011174       3.41223904
C        3.90315520       3.01799800       7.97063721
C        8.42330504       7.91352242       5.44764307
C        0.48163264       6.61028531       2.06362506
C        2.30532920       0.46227427       0.66741673
C        6.38300730       6.10192606       1.64210948
C        7.66798053       7.60416009       7.52365311
C        9.35512490       1.84574378       7.22231696
C        2.38801346       9.38717131       4.83984274
64
Lattice="9.24064718142065 0.0 0.0 0.0 9.24064718142065 0.0 0.0 0.0 9.24064718142065" Properties=species:S:1:pos:R:3 structure_id=14_zrc64_T5250_v095_s17_f0140 label_source=UNLABELED_STRUCTURE_NOT_DFT phase_assignment=unassigned pbc="T T T"
Zr       8.74466166       0.10634281       9.14124389
Zr       8.64490378       0.85561305       2.75241896
Zr       1.83286316       9.16703827       8.17331227
Zr       1.87885432       2.89729621       8.20047341
Zr       0.24557810       0.17616806       6.17816941
Zr       6.85194897       2.96459407       8.92411524
Zr       2.28705994       6.97218367       5.97647028
Zr       2.35847173       1.88377523       5.32341280
Zr       0.95046270       6.65835565       8.94842455
Zr       9.14935838       7.14107156       1.90492625
Zr       2.47973832       4.27925862       1.31823851
Zr       3.47305273       4.78380924       7.55175456
Zr       3.58559461       4.76908627       4.52974422
Zr       7.22739088       6.72580955       8.94441946
Zr       8.60473979       5.23899700       6.74698552
Zr       2.16147087       8.11219673       3.95646689
Zr       4.19295567       7.34465013       7.93043195
Zr       2.51114651       0.92245901       1.70838452
Zr       8.85631901       3.06301296       4.80824663
Zr       5.06834064       1.18602716       3.66848398
Zr       4.77962775       9.06862702       5.91820720
Zr       7.01543832       1.35079320       6.78081845
Zr       4.38639405       1.52194468       8.59748393
Zr       8.63579412       6.00030548       4.13550898
Zr       5.48392032       5.50789451       1.29684657
Zr       3.71314992       6.87258961       2.05604296
Zr       8.56900285       3.62513135       2.15861478
Zr       5.84715395       9.17623889       1.57546904
Zr       5.03924160       2.86218192       1.83119442
Zr       6.26630203       3.62228802       6.06050284
Zr       5.69616194       7.05793629       4.02210355
Zr       7.38724597       7.63663545       5.93823389
C        5.93038773       5.31927553       7.90892505
C        1.02002586       9.03551541       1.26725780
C        7.52609887       1.54383917       4.54788969
C        9.10387706       2.35604471       8.34177740
C        4.82500092       1.89976496       5.97082260
C        2.99446008       2.77486445       3.52471238
C        1.64050737       4.23156575       5.68906339
C        1.11884193       2.25045630       3.39942255
C        3.32234933       5.85352993       9.16162081
C        0.66932489       2.06129478       0.53528765
C        8.87007418       7.82226446       7.49263776
C        0.81925801       5.09464517       5.29611701
C        3.82977310       3.20897724       0.17684137
C        7.21524030       6.70599897       2.01016630
C        8.92012723       2.51741059       6.93909221
C        1.25940054       5.80287384       3.01261476
C        3.95393781       4.61518790       2.69295245
C        7.41466862       8.79499955       3.62544573
C        8.85573282       8.34927912       4.28852938
C        6.94038617       1.88547833       2.06228420
C        5.13165064       5.72276694       5.67383587
C        7.83961252       4.73785719       0.50614653
C        3.88662987       2.77357101       6.24492789
C        4.49375328       8.73503224       2.94744466
C        6.82569730       0.58534828       8.71924996
C        6.30928452       8.77208978       7.66743103
C        2.95573064       7.49633259       0.14669267
C        4.05845689       6.51065945       6.01484645
C        8.07506514       5.57682980       1.75471610
C        6.70322672       0.18251171       4.68699735
C        6.29703324       5.76700871       6.56785002
C        7.32831156       4.43713940       3.46655075
64
Lattice="9.554125754059623 0.0 0.0 0.0 9.554125754059623 0.0 0.0 0.0 9.554125754059623" Properties=species:S:1:pos:R:3 structure_id=15_zrc64_T5250_v105_s17_f0055 label_source=UNLABELED_STRUCTURE_NOT_DFT phase_assignment=unassigned pbc="T T T"
Zr       8.87369614       8.79476274       1.97070123
Zr       2.22320562       0.35348741       4.01325479
Zr       2.84425110       7.80986970       6.06708117
Zr       6.76068516       4.45076578       7.88185280
Zr       6.73120723       7.79196324       8.78740620
Zr       0.25673139       2.01745024       6.09944073
Zr       4.84785215       2.08515640       8.24817896
Zr       2.80591865       4.24659342       6.44097090
Zr       0.23822361       3.56397958       3.43105789
Zr       0.34020214       7.74775241       5.05154743
Zr       6.17776417       3.11336286       0.99363795
Zr       4.27372121       3.90123163       3.32376520
Zr       2.85663519       9.26194502       8.81670370
Zr       8.12273600       9.38641256       6.34970643
Zr       8.43983228       0.73102962       9.28334835
Zr       1.73509857       6.81002989       1.43274896
Zr       2.08299517       2.46235502       8.49416722
Zr       5.05534377       1.67066833       4.81677420
Zr       4.63625926       6.65728778       2.26866359
Zr       3.71512651       6.07873282       8.83516849
Zr       6.23580172       7.93815756       3.65283208
Zr       2.64561591       3.81154547       0.76422220
Zr       6.40095138       6.34461675       6.44881533
Zr       7.09141611       4.37715851       3.87268218
Zr       4.97566434       9.14558815       6.81523257
Zr       7.91581674       5.91757375       1.90718120
Zr       9.50599196       4.96734268       9.09518188
Zr       0.43009762       7.51559347       8.03225776
Zr       2.13240766       5.95739037       3.48309511
Zr       5.17108740       9.51101191       1.66005936
Zr       9.20577942       5.27978193       6.06667823
Zr       1.39171974       1.15466986       1.49245120
C        4.87878384       3.37453552       6.55043070
C        8.41077713       7.41537270       6.74328804
C        6.59526630       7.83787401       1.67275338
C        4.19984827       9.19507178       4.99018635
C        8.11505603       6.83776661       4.12007738
C        6.53442403       1.65382115       9.10640174
C        4.74930181       8.78708827       9.23577384
C        4.97678978       6.15445093       4.38948372
C        1.90819745       5.17677076       8.66091964
C        0.20139719       5.09519802       1.79506748
C        1.65504118       6.11002328       6.37919793
C        2.43283773       9.11870172       1.33449220
C        8.81716022       2.87653291       8.00945468
C        4.60568386       4.99077682       0.92399386
C        1.15075014       5.05932230       7.55159871
C        4.84067415       1.94640574       2.33989520
C        2.49133951       2.93126562       5.02216825
C        7.97022733       3.10942260       9.22803335
C        1.96731133       0.39614618       6.64383537
C        7.93233608       6.44842362       9.38723680
C        5.66768238       5.25850651       0.16414932
C        7.55467783       1.20067160       4.89615035
C        0.19746012       1.17807548       2.91306337
C        4.30392464       5.59857330       5.47414513
C        4.95565947       4.30944165       5.50173668
C        4.10740221       8.87596159       3.69539699
C        3.56933188       1.19643769       2.54552686
C        0.89202713       0.22097953       7.46809345
C        1.12470440       3.99738836       5.17323846
C        8.16211448       6.15396426       7.88654056
C        7.07148015       8.80144032       0.73064670
C        8.60811629       0.50429785       4.14366160
64
Lattice="9.4 0.0 0.0 0.0 9.4 0.0 0.0 0.0 9.4" Properties=species:S:1:pos:R:3 structure_id=16_zrc64_T6000_v100_s17_f0115 label_source=UNLABELED_STRUCTURE_NOT_DFT phase_assignment=unassigned pbc="T T T"
Zr       1.94546088       6.63146729       3.06611947
Zr       1.34298817       3.11755929       2.01738908
Zr       7.94746573       5.94973361       3.29900697
Zr       3.90227247       3.41047396       3.51047189
Zr       5.20369402       1.01591576       5.17292414
Zr       3.94022243       8.07110608       1.28542896
Zr       4.45920145       0.31825885       7.91577463
Zr       5.97983070       5.49937992       0.82286468
Zr       7.75406322       3.33881075       1.56367252
Zr       3.37992718       5.73975821       0.74530483
Zr       5.63142325       1.96193771       0.46020363
Zr       7.34605492       8.22225892       9.16019736
Zr       5.45247125       6.19605526       3.56315812
Zr       8.95938818       6.71779067       7.20822382
Zr       3.68260567       0.79722592       3.06634312
Zr       1.91593757       5.37702415       7.32486260
Zr       4.50417753       4.90939312       6.52188514
Zr       2.91112701       7.80244953       5.58115971
Zr       2.68027831       2.82699444       8.57269426
Zr       5.67661086       7.42171932       6.58992620
Zr       1.96103653       7.98760125       8.14277221
Zr       8.19054061       0.50778144       5.98437135
Zr       0.20016996       5.93204588       0.56874709
Zr       6.28639251       3.01950702       4.17374749
Zr       9.24234612       0.96691954       8.53031476
Zr       9.39256391       0.46983024       3.85019292
Zr       9.07327680       4.01748747       8.28895662
Zr       6.34632777       9.19216686       2.55218339
Zr       8.73896499       3.25302110       5.11366797
Zr       1.02784832       8.53931757       1.89977025
Zr       2.24526880       1.39460400       5.95012084
Zr       6.41427966       3.81063645       7.35848694
C        6.01553234       4.14324271       2.65499554
C        0.12843613       1.14975958       1.36390918
C        0.25176972       2.19987295       6.75721786
C        8.30861076       8.28854306       3.37984442
C        2.07496001       0.60474311       8.00686462
C        7.07380351       8.88154415       7.61086851
C        1.83478308       7.13971277       0.78552251
C        4.00576965       6.99153400       7.81167045
C        5.01718577       8.46819196       3.94941627
C        2.23021942       5.63838724       5.12673832
C        1.46144436       3.07920412       3.89053047
C        3.94666574       2.48411968       7.04720444
C        0.48082069       7.78590974       5.09728672
C        6.27908649       1.81639429       7.82581242
C        0.41016897       5.87494956       4.88075706
C        5.50722196       1.78872949       2.75926609
C        7.18365193       1.25682867       4.18934077
C        1.14317732       4.22631123       0.23250067
C        1.35717611       3.46375162       5.92647930
C        8.28143410       0.88420682       1.12152856
C        6.98276897       6.89131277       1.32458951
C        3.73843241       1.17827872       0.64125118
C        4.96361170       6.89789724       8.77278396
C        6.63801390       6.22390387       8.20266544
C        7.16227632       3.98969989       9.16924550
C        3.50331645       5.41792152       4.29939051
C        1.03382112       8.72203622       6.09525485
C        7.02274229       4.94459705       5.07790050
C        2.82442669       1.75214126       1.63979540
C        8.53732897       7.86012107       4.74653516
C        0.20311297       4.90017815       3.95872686
C        4.31770461       3.90292331       0.74826542
64
Lattice="9.24064718142065 0.0 0.0 0.0 9.24064718142065 0.0 0.0 0.0 9.24064718142065" Properties=species:S:1:pos:R:3 structure_id=17_zrc64_T6000_v095_s17_f0175 label_source=UNLABELED_STRUCTURE_NOT_DFT phase_assignment=unassigned pbc="T T T"
Zr       0.65887563       0.30077294       7.36671389
Zr       2.47392698       3.30720553       1.00138423
Zr       4.65135701       0.31330264       0.72534640
Zr       0.68671382       1.21726823       3.06069843
Zr       6.27596585       9.03777779       3.55651802
Zr       7.18622585       5.67747568       4.82260273
Zr       6.25169549       5.84778185       2.45905848
Zr       4.11545807       5.30031979       3.94799203
Zr       5.26194763       1.42194226       6.77004344
Zr       0.92114229       6.83748428       8.68900942
Zr       4.59351654       5.85496666       8.41685159
Zr       1.24156159       5.78083925       3.92622087
Zr       7.81077399       2.02181997       6.23276771
Zr       6.11132775       3.14559865       0.96567325
Zr       2.25487418       2.51914501       7.31108632
Zr       8.84794450       8.11053527       4.75028867
Zr       3.07318073       8.08475446       5.43332545
Zr       7.33181859       7.69415193       1.27836162
Zr       6.72012459       4.13448893       7.26820204
Zr       2.61229193       7.84998252       2.92328735
Zr       4.40283681       3.79992844       5.60000777
Zr       7.84422035       0.77947623       0.40153828
Zr       0.02453692       5.07261333       6.85127648
Zr       5.33800889       7.43936175       6.13759123
Zr       2.53487006       4.94328444       7.62741657
Zr       6.61612764       3.33031705       3.85112629
Zr       8.86123830       4.34161372       2.51663893
Zr       1.72523533       0.25459282       0.38200487
Zr       8.57236068       4.10276234       0.08788158
Zr       7.37189657       7.16536570       7.78926384
Zr       4.61733166       2.29620146       3.25388981
Zr       0.74898351       3.21549445       5.04897264
C        1.57639983       3.76094783       2.91571779
C        2.56419558       1.25337842       1.94645337
C        6.76346560       5.71273809       9.16018669
C        0.45869641       1.77765288       1.01411199
C        4.46417230       6.68320904       1.11665523
C        0.52322693       1.63092942       8.97383418
C        7.95388987       1.45121449       3.63479450
C        2.81575920       3.89183429       3.46520702
C        3.42277957       0.64172412       7.55649834
C        2.31615071       6.00637474       0.67012771
C        7.26772625       2.45966490       8.54046632
C        5.21745302       7.52127085       1.98081914
C        1.05183005       5.46213539       0.92014990
C        0.12466807       7.26509313       6.32952969
C        6.24583678       1.29142301       1.89644382
C        8.88634970       8.32458548       8.90786934
C        4.43882545       2.34301855       8.76658762
C        8.56737726       6.49067509       2.55271943
C        7.58849765       2.04401051       2.28088871
C        3.52090625       5.96755484       5.99994308
C        1.51555864       0.44065399       4.91372718
C        0.56733335       6.66550495       1.58369542
C        2.38811507       1.27759810       4.78861080
C        5.65818179       8.42729718       8.52837301
C        3.40430950       1.57907756       5.46240837
C        1.52562723       7.54209779       6.44658574
C        4.86786851       0.20044426       4.98145644
C        8.88622581       2.35767977       8.11005345
C        3.22520477       5.82928420       2.02139693
C        0.77665474       8.20290686       1.96937053
C        7.21401440       9.21600268       6.45332114
C        4.42229174       3.71009208       8.44346616
64
Lattice="9.554125754059623 0.0 0.0 0.0 9.554125754059623 0.0 0.0 0.0 9.554125754059623" Properties=species:S:1:pos:R:3 structure_id=18_zrc64_T6000_v105_s17_f0065 label_source=UNLABELED_STRUCTURE_NOT_DFT phase_assignment=unassigned pbc="T T T"
Zr       3.68850318       5.09017277       8.94645917
Zr       7.68824527       0.13035010       5.99927889
Zr       3.74501858       0.09432276       0.07008761
Zr       1.16757668       2.00187527       9.44901070
Zr       9.09433069       3.10706148       3.22387212
Zr       3.38867994       5.83948406       5.80030755
Zr       2.39516396       8.99075682       2.23923901
Zr       6.48031314       0.57934655       3.05039734
Zr       0.50092615       5.16936174       6.26010578
Zr       8.77378453       2.56745965       6.89662304
Zr       5.48060061       7.02119715       2.73112123
Zr       8.97115728       8.60347490       4.13084717
Zr       3.54236845       3.61480842       3.87581770
Zr       6.81566838       5.94260444       4.75928172
Zr       1.85604636       5.75758264       2.82793421
Zr       2.96640914       7.07116675       0.03894528
Zr       3.28421713       2.68299726       1.31126099
Zr       5.73745385       3.97674327       1.45044179
Zr       1.55951664       8.17887274       5.92649084
Zr       8.88211145       6.87431355       2.60882973
Zr       6.85727058       8.17073839       9.46823926
Zr       4.00946169       9.25649983       4.65733705
Zr       9.30076211       4.25142864       0.56275769
Zr       6.66079860       5.21120627       8.08490985
Zr       9.53004919       0.13112046       1.51603369
Zr       0.17007762       7.31477078       8.90935678
Zr       1.33919727       1.61574354       4.05361832
Zr       4.41168129       3.00913351       7.00794369
Zr       9.08284289       0.16692100       8.53970239
Zr       5.23927604       7.86219295       7.13017679
Zr       7.02749481       3.53153835       5.01574729
Zr       6.27042645       1.72157108       0.12889872
C        7.65172501       2.32660146       1.47324493
C        3.29567840       6.84901827       7.42983049
C        1.84324943       4.34899198       8.83037375
C        8.60555792       7.12543230       6.19184028
C        6.07457161       1.18955097       7.38668207
C        1.06118496       7.13359344       1.34523259
C        2.66373698       0.85367860       7.83240323
C        4.84668675       4.48855815       5.06236848
C        5.73072118       0.01903912       8.60210794
C        5.85091609       0.25217357       4.98074866
C        2.27659535       1.94964904       7.04465232
C        5.21208122       6.35406602       9.24408650
C        0.08453494       6.19977435       4.43757850
C        8.86186324       5.07588285       4.22512817
C        5.86479572       1.26793577       6.07386327
C        1.20512924       3.24838152       1.84765370
C        7.62844326       4.62155110       3.32845109
C        5.48847397       5.17177431       6.31466992
C        5.79317345       8.04954367       5.10293806
C        8.61628379       1.59151773       4.48134402
C        8.69018071       4.44587959       7.57320069
C        3.18673510       7.46094579       3.33065524
C        6.67111698       2.72821175       7.80592667
C        4.75383072       3.26775941       9.25982789
C        4.50246054       1.44965257       3.19687571
C        0.52599685       0.66802499       6.12454446
C        7.72535287       8.54850184       2.44535967
C        1.11857705       5.50035178       8.21881444
C        8.41991472       7.96227929       7.12399194
C        2.39676136       9.29085581       7.28984757
C        2.16049216       3.79507191       5.28587038
C        2.29044241       2.73332926       5.78750062
