Zr C 
 1.0000000000000000
     9.5541257540596227    0.0000000000000000    0.0000000000000000
     0.0000000000000000    9.5541257540596227    0.0000000000000000
     0.0000000000000000    0.0000000000000000    9.5541257540596227
 Zr  C  
  32  32
Direct
  0.0141965108573506  0.0105008027508295  0.9885990573283260
  0.9953779842199340  0.2397715268743054  0.2529532981050731
  0.2371310812019966  0.9934995862940561  0.2492637820878674
  0.2183000719991344  0.2583392613344282  0.0083610873518236
  0.0304922802461767  0.0180959602637151  0.5178196610922614
  0.0256476475512038  0.2653965611581562  0.7324078905939353
  0.2687360064220458  0.0062896995022769  0.7644651732678482
  0.2560783804798067  0.2412828258012496  0.4862745090021354
  0.0239448397361520  0.5224896257911290  0.9971118466817045
  0.9918815606998849  0.7258709272330059  0.2439990952609615
  0.2505593773436385  0.5008986183761022  0.2643172619877828
  0.2718307898445307  0.7510408220188077  0.9856684982462348
  0.9756887332259254  0.5064290071693990  0.4946731173170726
  0.0031637232728653  0.7675014364222947  0.7418939652315326
  0.2340100117533002  0.5441008977499753  0.7513153390251267
  0.2431981292493149  0.7368986102164784  0.4914191628684627
  0.5027140843273044  0.9758472835777832  0.0110810002636835
  0.5236549537642582  0.2348804775828363  0.2820778435802847
  0.7757483469223496  0.9948961494483910  0.2482576900342941
  0.7377120242535188  0.2499322147801299  0.9767967037794324
  0.5061157362247781  0.9998024026427330  0.4791794275949018
  0.4909499875492981  0.2477963772869579  0.7452409684867926
  0.7451166065063679  0.0027258108873995  0.7219202863296285
  0.7677248299650365  0.2546443256690692  0.5155244694060224
  0.4779590542922953  0.4664772941790386  0.0141161790698321
  0.5090150847065825  0.7355121976507476  0.2449482883356023
  0.7308094261825253  0.4981172848785073  0.2543463109607334
  0.7585451172149993  0.7502085365533772  0.0204073889143812
  0.4923785473517688  0.4920366270040476  0.5149296823845531
  0.4794071260841201  0.7506529016485504  0.7303720988846064
  0.7487047244443629  0.5198993647209851  0.7552034247543956
  0.7272958048566037  0.7396339290381818  0.5129757191983276
  0.2273806003732911  0.0139624810719408  0.0043625959164594
  0.2803915626567628  0.2686452288854793  0.2366934514169561
  0.9912658131002157  0.0278733142995156  0.2143239803108019
  0.9753521498395665  0.2694648653652140  0.9962857962189872
  0.2528000114478007  0.9945157661361391  0.4705967616230669
  0.2492255504370181  0.2468820550114438  0.7666657660317718
  0.0088216130046423  0.9844232090061444  0.7468340823301530
  0.0370205437006846  0.2614178622192347  0.4790271865592025
  0.2711371010476061  0.5289132831282665  0.0319711104776080
  0.2641805911888407  0.7813199440909741  0.2114497079067223
  0.9710767194075729  0.4966574872623754  0.2528802657818693
  0.0080312497422798  0.7473839965907820  0.9945448415332135
  0.2627538295624086  0.4798722016037835  0.4898210522309183
  0.2443339003579785  0.7712621761199833  0.7390118825890365
  0.9856646402270972  0.5178264644358297  0.7590768267749076
  0.9957800168180886  0.7109930887306602  0.4921267221129208
  0.7144379104597458  0.9777933789588390  0.0351544357532960
  0.7528137136926275  0.2846578221816262  0.2758414048381337
  0.4672301364782876  0.9861842147154162  0.2314489454004104
  0.4999148046560444  0.1897255046313145  0.9979956679979993
  0.7384889022422605  0.9973931879649567  0.4877356023935500
  0.7668599617172548  0.2303361769196854  0.7440960641510554
  0.5031576298812447  0.0282490200513971  0.7795362602209184
  0.4999708830470760  0.2235558862193590  0.4796995976374500
  0.7303425828402023  0.5091098102757551  0.0267895479490883
  0.7481642793913127  0.7336005407948349  0.2560377592853625
  0.4787729110700016  0.4930977518270795  0.2803505060483302
  0.4951384021703844  0.7175912246169516  0.0049971992444953
  0.7501541359715364  0.5041072426698502  0.4959668400833599
  0.7430229539299927  0.7426539646482154  0.7788509908233266
  0.5088015507786736  0.5035644070265370  0.7453914563531877
  0.4705100336459259  0.7658067005127197  0.5102316596501414
