Zr C 
 1.0000000000000000
     9.4000000000000004    0.0000000000000000    0.0000000000000000
     0.0000000000000000    9.4000000000000004    0.0000000000000000
     0.0000000000000000    0.0000000000000000    9.4000000000000004
 Zr  C  
  32  32
Direct
  0.9935353904255320  0.0010425797872340  0.0010070159574468
  0.0028113255319149  0.2558861085106383  0.2492156255319149
  0.2529145797872340  0.9995435893617022  0.2462572712765957
  0.2577467787234042  0.2448253106382979  0.9977857329787234
  0.9948333308510638  0.9996253702127660  0.5000987085106383
  0.9981436393617020  0.2528833542553191  0.7494289159574468
  0.2500914946808511  0.0017683585106383  0.7434969223404255
  0.2456671031914893  0.2471287095744681  0.5056440957446808
  0.0102268808510638  0.5012865414893617  0.0064528351063830
  0.9992865968085108  0.7508716425531915  0.2411857031914894
  0.2559746893617021  0.4988361989361701  0.2557299659574468
  0.2480390989361702  0.7553106808510638  0.9901496446808510
  0.9942500265957446  0.4884074329787234  0.5016983010638298
  0.9966404265957448  0.7533021180851064  0.7445571351063830
  0.2494732819148936  0.5046794521276595  0.7433086617021276
  0.2420113361702127  0.7547174244680851  0.4881652404255319
  0.5052486542553192  0.9997417617021277  0.0122413244680851
  0.5060892095744681  0.2441518042553191  0.2519104319148936
  0.7471902489361701  0.0051914468085106  0.2468591872340425
  0.7561014723404255  0.2584647755319149  0.0045217755319149
  0.4966492191489361  0.9983504840425533  0.5066788861702127
  0.5086721053191489  0.2468319510638298  0.7496605670212766
  0.7450538851063829  0.9980429670212767  0.7471579148936169
  0.7495471085106383  0.2475573500000000  0.5030856063829787
  0.4989034819148936  0.4998947202127659  0.9993334468085108
  0.5079702393617022  0.7470537404255319  0.2544700797872340
  0.7476724308510637  0.5002025159574468  0.2538333468085107
  0.7548807457446808  0.7493797595744681  0.9970945212765958
  0.4966589723404256  0.4934589063829787  0.4975155223404256
  0.4987168244680851  0.7541746234042553  0.7560525776595745
  0.7470167042553192  0.5030086914893617  0.7517344574468086
  0.7402974638297872  0.7449522414893617  0.5020294478723404
  0.2529822255319149  0.9947059287234044  0.9970543382978724
  0.2536763670212766  0.2451681936170213  0.2565136468085106
  0.9983200085106383  0.9871311702127660  0.2505223787234042
  0.0083779521276596  0.2457027287234042  0.0076773840425532
  0.2543009063829787  0.0023043914893617  0.5016105329787234
  0.2441263659574468  0.2514471978723404  0.7556608127659574
  0.9984487861702128  0.0074223978723404  0.7457107851063830
  0.0025357989361702  0.2429294712765958  0.5036886021276595
  0.2547340287234043  0.5068477159574467  0.0011513074468085
  0.2451274489361702  0.7477026999999999  0.2518649765957447
  0.9968073638297873  0.4975641372340425  0.2450631361702127
  0.9978704978723405  0.7468661117021276  0.9995261457446808
  0.2355502117021277  0.4953659031914894  0.5033094489361702
  0.2484877606382979  0.7589881978723404  0.7440656414893616
  0.9953168085106383  0.4959256404255319  0.7444815319148936
  0.9947712191489362  0.7618305138297873  0.4942953106382978
  0.7471777468085106  0.9953780361702127  0.9885017808510639
  0.7585551159574467  0.2484861446808510  0.2450125382978723
  0.5003876882978723  0.0001244617021277  0.2481876180851064
  0.4990831946808510  0.2562081627659574  0.0042393425531915
  0.7444686914893617  0.0055630904255319  0.4890516170212766
  0.7537615223404255  0.2500435744680851  0.7533424202127660
  0.5029345744680851  0.0033109510638298  0.7536140851063829
  0.5086098925531914  0.2533136776595745  0.5062940180851063
  0.7563747329787234  0.5005703340425531  0.9928006840425534
  0.7539398968085106  0.7465378372340425  0.2465680404255319
  0.5106259872340425  0.4987285670212765  0.2524399276595745
  0.5041355936170213  0.7535368808510639  0.0139521351063830
  0.7491253106382979  0.4928403170212766  0.5043099021276596
  0.7485010117021276  0.7509314797872341  0.7552541457446807
  0.4949925255319149  0.5063673691489361  0.7528592680851063
  0.4986923148936170  0.7458077212765957  0.5038257765957447
