Zr C 
 1.0000000000000000
     9.5541257540596227    0.0000000000000000    0.0000000000000000
     0.0000000000000000    9.5541257540596227    0.0000000000000000
     0.0000000000000000    0.0000000000000000    9.5541257540596227
 Zr  C  
  32  32
Direct
  0.3860639136378047  0.5327722181003475  0.9363974689424830
  0.8047042159553769  0.0136433309918088  0.6279254684763658
  0.3919792010701463  0.0098724637322176  0.0073358471245364
  0.1222065430218864  0.2095299268119208  0.9889979415484106
  0.9518747113199103  0.3252062574830340  0.3374324561962304
  0.3546823673071420  0.6112002511081411  0.6070997702260099
  0.2506942049598077  0.9410339632843309  0.2343740352160329
  0.6782737957208135  0.0606383634581983  0.3192754014823638
  0.0524303492433259  0.5410606760962402  0.6552253911248400
  0.9183241627661825  0.2687278472181974  0.7218476312318994
  0.5736370601644268  0.7348864072693033  0.2858577854535277
  0.9389825416781550  0.9004983942507054  0.4323626546682613
  0.3707684555538553  0.3783505171537060  0.4056695295593252
  0.7133743640713116  0.6219935337856466  0.4981389027643627
  0.1942664779361263  0.6026278900100495  0.2959908926045262
  0.3104846237490175  0.7401165666042657  0.0040762787723881
  0.3437485767449220  0.2808208019242736  0.1372455234266552
  0.6005210730622957  0.4162330888694732  0.1518131353173862
  0.1632296538840667  0.8560566350703890  0.6203069744483725
  0.9296623970252769  0.7195125673407691  0.2730579229555473
  0.7177287337971548  0.8552052384895409  0.9910105334312637
  0.4196576215564620  0.9688484401753309  0.4874686779186532
  0.9734812320267016  0.4449835337569777  0.0589020597411812
  0.6971646356203522  0.5454404101584823  0.8462218373632626
  0.9974799829288652  0.0137239621264443  0.1586784316038362
  0.0178014839157952  0.7656138267692255  0.9325140796136128
  0.1401695251322147  0.1691147449376473  0.4242793557827712
  0.4617566696906247  0.3149564474448930  0.7334992101272996
  0.9506723197776891  0.0174710909503231  0.8938235281623139
  0.5483783838383947  0.8229107667605582  0.7462929600827509
  0.7355455633409433  0.3696349033818632  0.5249823394745218
  0.6563056224517086  0.1801913774547599  0.0134914196566054
  0.8008817558999286  0.2435179854056021  0.1541998684111550
  0.3449481914762992  0.7168649907177325  0.7776567612000508
  0.1929270639144339  0.4551951787061291  0.9242471760817207
  0.9007164173387012  0.7457963693823423  0.6480802580423083
  0.6358061187836564  0.1245065217437534  0.7731405531124961
  0.1110708595759371  0.7466505699874089  0.1408012229092128
  0.2788048895848514  0.0893518278883094  0.8197927718013942
  0.5072873094704505  0.4698031269006899  0.5298620313689046
  0.5998163858754917  0.0019927642245980  0.9003553193137028
  0.6123968053815808  0.0263942062760925  0.5213191440235796
  0.2382840046848907  0.2040635731816256  0.7373413854225932
  0.5455319888211613  0.6650599101901590  0.9675491759224663
  0.0088480036976780  0.6489106915267122  0.4644672484151088
  0.9275430811902936  0.5312765375568997  0.4422307466640878
  0.6138495421737570  0.1327108102445945  0.6357319790854533
  0.1261370506398824  0.3399977772555210  0.1933880448679375
  0.7984449286423715  0.4837230766086462  0.3483784048567411
  0.5744611393259381  0.5413131919392750  0.6609364459450251
  0.6063530662110884  0.8425201714242594  0.5341083204637244
  0.9018390605125224  0.1665791063430112  0.4690480468247411
  0.9095736160168788  0.4653360975671200  0.7926628645118402
  0.3335454418303328  0.7809135008328508  0.3486091062371435
  0.6982446276851014  0.2855532598469707  0.8170215535025357
  0.4975683639060393  0.3420259994601289  0.9691967772211316
  0.4712582454848754  0.1517305305913554  0.3346068281235721
  0.0550544197909997  0.0699200541416519  0.6410366178608894
  0.8085881501734931  0.8947445386478898  0.2559480305103738
  0.1170779069414159  0.5757043519762376  0.8602372053379148
  0.8812857331736828  0.8333864861069853  0.7456456119004488
  0.2508613997446703  0.9724443714917471  0.7630051935314424
  0.2261318529413316  0.3972181241582930  0.5532552650036421
  0.2397333329035127  0.2860888929412079  0.6057593091111685
