Zr C 
 1.0000000000000000
     9.1180000000000003    0.1692000000000000    0.0000000000000000
     0.0000000000000000    9.4939999999999998    0.1128000000000000
     0.0000000000000000    0.0000000000000000    9.3060000000000009
 Zr  C  
  32  32
Direct
  0.9981362947537377  0.0092833963468877  0.0055971311264961
  0.0010767666722149  0.2496400656950446  0.2677889849081976
  0.2471197186609359  0.0062997315481816  0.2457300590622800
  0.2622283279721498  0.2528693158019524  0.9984643593899198
  0.0012217767992626  0.0043315687229350  0.5213320699589590
  0.0026397033647021  0.2500636476197329  0.7520751489672608
  0.2583171301779807  0.9849127805647400  0.7503648894899960
  0.2441242488293921  0.2498005661563602  0.5067706658605685
  0.9901245832419285  0.5032364213287142  0.9876242803559994
  0.9979868935087733  0.7466427415621184  0.2426966237433946
  0.2605917016721938  0.4843019663192078  0.2425082594046642
  0.2471512565135279  0.7456721744567764  0.9960915843396060
  0.9949498036980625  0.5167445614269097  0.4996592880650263
  0.9982330711837752  0.7433800338692593  0.7648564801022364
  0.2338167348638865  0.5113426324270400  0.7578282749364239
  0.2579220139944310  0.7326477474564891  0.5106578374238951
  0.4953542431093534  0.0069177282319585  0.9938746645941013
  0.4859583218877785  0.2481983515502295  0.2690288897135328
  0.7458110008318916  0.9975193209799329  0.2429851639606740
  0.7351093521543899  0.2439681701018968  0.0018688088835700
  0.4923093011570631  0.0004531009917568  0.5050590817647080
  0.4946271440107354  0.2407895298344938  0.7597357650959352
  0.7614335549327795  0.0143331220628069  0.7491132992596984
  0.7478995823597632  0.2497865770488518  0.4971463404685627
  0.5270042098414670  0.5157152784587842  0.0096574172362728
  0.5028350588553325  0.7427667548621207  0.2297151727461561
  0.7477368525531038  0.4922159389864135  0.2457558445030898
  0.7436013855446264  0.7393109606630179  0.0094185427088204
  0.4938733956853588  0.4802141923566561  0.5066863539411255
  0.5046280122925459  0.7425191219181067  0.7572782600358161
  0.7682250106626249  0.4938586192484125  0.7475265618117449
  0.7469544518361323  0.7425263187556769  0.5087799815392178
  0.2413513601017029  0.0129585354865472  0.0046714742525991
  0.2534385279123205  0.2605677547175072  0.2405748610812134
  0.0013796269788108  0.0074224314425429  0.2439684247788342
  0.0018143104923396  0.2629769105715490  0.9981455337429215
  0.2602539709780695  0.9924744037406628  0.5043487124214485
  0.2350789334687703  0.2591603888064639  0.7461808581615819
  0.0025663693685312  0.9751958520514991  0.7235131501606822
  0.0019072388978740  0.2557662395393385  0.4947752717079407
  0.2403438818773649  0.5099481348434945  0.9919853943021196
  0.2334971342492794  0.7529627747811916  0.2640186532027032
  0.9983431549361338  0.4987689693899292  0.2413122410305771
  0.0110240813481358  0.7499895027467608  0.9820638759814726
  0.2586020711233827  0.5063258031151681  0.4972221024197430
  0.2492603913216477  0.7481472800492607  0.7558541976433304
  0.0015905596380929  0.4963474788613264  0.7524807411166123
  0.0138191442091184  0.7427907590979979  0.5030278400266291
  0.7427243266743232  0.0051236613931587  0.9915645297868947
  0.7562982549875344  0.2504472237340457  0.2519096575915272
  0.5073289411085317  0.0042618542360110  0.2484118363433751
  0.5009681421686286  0.2456715249193909  0.0151510457156732
  0.7521481398519161  0.0093037510290177  0.5013162650134341
  0.7299145152998684  0.2515909639614666  0.7396245778790003
  0.5126355290824459  0.0035004235447063  0.7661517286916982
  0.5071443685139827  0.2612081162272800  0.4967682410009773
  0.7562346925265531  0.4917038367958627  0.9866077864099659
  0.7545675270102001  0.7607541017988202  0.2533654092623045
  0.5014695095263465  0.4987412760839050  0.2477046989090650
  0.4824732696923179  0.7637163041206152  0.9877115522800113
  0.7609819909432477  0.4919327010846901  0.4911814598636581
  0.7523003891949529  0.7405747831769544  0.7478197286367082
  0.4929584599911879  0.4967844793206120  0.7518759131535988
  0.4965802829044904  0.7506193419787613  0.4950161520337510
