216
Lattice="14.331188631089436 0.0 0.0 0.0 14.331188631089436 0.0 0.0 0.0 14.331188631089436" Properties=species:S:1:pos:R:3 structure_id=zrc216_v105 reference_id=zrc_start_a4p700 provenance=ideal_starting_structure_NOT_equilibrated_NOT_DFT_labeled a_start_A=4.7 volume_ratio_to_start=1.05 pbc="T T T"
Zr       0.00000000       0.00000000       0.00000000
Zr       0.00000000       2.38853144       2.38853144
Zr       2.38853144       0.00000000       2.38853144
Zr       2.38853144       2.38853144       0.00000000
Zr       0.00000000       0.00000000       4.77706288
Zr       0.00000000       2.38853144       7.16559432
Zr       2.38853144       0.00000000       7.16559432
Zr       2.38853144       2.38853144       4.77706288
Zr       0.00000000       0.00000000       9.55412575
Zr       0.00000000       2.38853144      11.94265719
Zr       2.38853144       0.00000000      11.94265719
Zr       2.38853144       2.38853144       9.55412575
Zr       0.00000000       4.77706288       0.00000000
Zr       0.00000000       7.16559432       2.38853144
Zr       2.38853144       4.77706288       2.38853144
Zr       2.38853144       7.16559432       0.00000000
Zr       0.00000000       4.77706288       4.77706288
Zr       0.00000000       7.16559432       7.16559432
Zr       2.38853144       4.77706288       7.16559432
Zr       2.38853144       7.16559432       4.77706288
Zr       0.00000000       4.77706288       9.55412575
Zr       0.00000000       7.16559432      11.94265719
Zr       2.38853144       4.77706288      11.94265719
Zr       2.38853144       7.16559432       9.55412575
Zr       0.00000000       9.55412575       0.00000000
Zr       0.00000000      11.94265719       2.38853144
Zr       2.38853144       9.55412575       2.38853144
Zr       2.38853144      11.94265719       0.00000000
Zr       0.00000000       9.55412575       4.77706288
Zr       0.00000000      11.94265719       7.16559432
Zr       2.38853144       9.55412575       7.16559432
Zr       2.38853144      11.94265719       4.77706288
Zr       0.00000000       9.55412575       9.55412575
Zr       0.00000000      11.94265719      11.94265719
Zr       2.38853144       9.55412575      11.94265719
Zr       2.38853144      11.94265719       9.55412575
Zr       4.77706288       0.00000000       0.00000000
Zr       4.77706288       2.38853144       2.38853144
Zr       7.16559432       0.00000000       2.38853144
Zr       7.16559432       2.38853144       0.00000000
Zr       4.77706288       0.00000000       4.77706288
Zr       4.77706288       2.38853144       7.16559432
Zr       7.16559432       0.00000000       7.16559432
Zr       7.16559432       2.38853144       4.77706288
Zr       4.77706288       0.00000000       9.55412575
Zr       4.77706288       2.38853144      11.94265719
Zr       7.16559432       0.00000000      11.94265719
Zr       7.16559432       2.38853144       9.55412575
Zr       4.77706288       4.77706288       0.00000000
Zr       4.77706288       7.16559432       2.38853144
Zr       7.16559432       4.77706288       2.38853144
Zr       7.16559432       7.16559432       0.00000000
Zr       4.77706288       4.77706288       4.77706288
Zr       4.77706288       7.16559432       7.16559432
Zr       7.16559432       4.77706288       7.16559432
Zr       7.16559432       7.16559432       4.77706288
Zr       4.77706288       4.77706288       9.55412575
Zr       4.77706288       7.16559432      11.94265719
Zr       7.16559432       4.77706288      11.94265719
Zr       7.16559432       7.16559432       9.55412575
Zr       4.77706288       9.55412575       0.00000000
Zr       4.77706288      11.94265719       2.38853144
Zr       7.16559432       9.55412575       2.38853144
Zr       7.16559432      11.94265719       0.00000000
Zr       4.77706288       9.55412575       4.77706288
Zr       4.77706288      11.94265719       7.16559432
Zr       7.16559432       9.55412575       7.16559432
Zr       7.16559432      11.94265719       4.77706288
Zr       4.77706288       9.55412575       9.55412575
Zr       4.77706288      11.94265719      11.94265719
Zr       7.16559432       9.55412575      11.94265719
Zr       7.16559432      11.94265719       9.55412575
Zr       9.55412575       0.00000000       0.00000000
Zr       9.55412575       2.38853144       2.38853144
Zr      11.94265719       0.00000000       2.38853144
Zr      11.94265719       2.38853144       0.00000000
Zr       9.55412575       0.00000000       4.77706288
Zr       9.55412575       2.38853144       7.16559432
Zr      11.94265719       0.00000000       7.16559432
Zr      11.94265719       2.38853144       4.77706288
Zr       9.55412575       0.00000000       9.55412575
Zr       9.55412575       2.38853144      11.94265719
Zr      11.94265719       0.00000000      11.94265719
Zr      11.94265719       2.38853144       9.55412575
Zr       9.55412575       4.77706288       0.00000000
Zr       9.55412575       7.16559432       2.38853144
Zr      11.94265719       4.77706288       2.38853144
Zr      11.94265719       7.16559432       0.00000000
Zr       9.55412575       4.77706288       4.77706288
Zr       9.55412575       7.16559432       7.16559432
Zr      11.94265719       4.77706288       7.16559432
Zr      11.94265719       7.16559432       4.77706288
Zr       9.55412575       4.77706288       9.55412575
Zr       9.55412575       7.16559432      11.94265719
Zr      11.94265719       4.77706288      11.94265719
Zr      11.94265719       7.16559432       9.55412575
Zr       9.55412575       9.55412575       0.00000000
Zr       9.55412575      11.94265719       2.38853144
Zr      11.94265719       9.55412575       2.38853144
Zr      11.94265719      11.94265719       0.00000000
Zr       9.55412575       9.55412575       4.77706288
Zr       9.55412575      11.94265719       7.16559432
Zr      11.94265719       9.55412575       7.16559432
Zr      11.94265719      11.94265719       4.77706288
Zr       9.55412575       9.55412575       9.55412575
Zr       9.55412575      11.94265719      11.94265719
Zr      11.94265719       9.55412575      11.94265719
Zr      11.94265719      11.94265719       9.55412575
C        2.38853144       0.00000000       0.00000000
C        2.38853144       2.38853144       2.38853144
C        0.00000000       0.00000000       2.38853144
C        0.00000000       2.38853144       0.00000000
C        2.38853144       0.00000000       4.77706288
C        2.38853144       2.38853144       7.16559432
C        0.00000000       0.00000000       7.16559432
C        0.00000000       2.38853144       4.77706288
C        2.38853144       0.00000000       9.55412575
C        2.38853144       2.38853144      11.94265719
C        0.00000000       0.00000000      11.94265719
C        0.00000000       2.38853144       9.55412575
C        2.38853144       4.77706288       0.00000000
C        2.38853144       7.16559432       2.38853144
C        0.00000000       4.77706288       2.38853144
C        0.00000000       7.16559432       0.00000000
C        2.38853144       4.77706288       4.77706288
C        2.38853144       7.16559432       7.16559432
C        0.00000000       4.77706288       7.16559432
C        0.00000000       7.16559432       4.77706288
C        2.38853144       4.77706288       9.55412575
C        2.38853144       7.16559432      11.94265719
C        0.00000000       4.77706288      11.94265719
C        0.00000000       7.16559432       9.55412575
C        2.38853144       9.55412575       0.00000000
C        2.38853144      11.94265719       2.38853144
C        0.00000000       9.55412575       2.38853144
C        0.00000000      11.94265719       0.00000000
C        2.38853144       9.55412575       4.77706288
C        2.38853144      11.94265719       7.16559432
C        0.00000000       9.55412575       7.16559432
C        0.00000000      11.94265719       4.77706288
C        2.38853144       9.55412575       9.55412575
C        2.38853144      11.94265719      11.94265719
C        0.00000000       9.55412575      11.94265719
C        0.00000000      11.94265719       9.55412575
C        7.16559432       0.00000000       0.00000000
C        7.16559432       2.38853144       2.38853144
C        4.77706288       0.00000000       2.38853144
C        4.77706288       2.38853144       0.00000000
C        7.16559432       0.00000000       4.77706288
C        7.16559432       2.38853144       7.16559432
C        4.77706288       0.00000000       7.16559432
C        4.77706288       2.38853144       4.77706288
C        7.16559432       0.00000000       9.55412575
C        7.16559432       2.38853144      11.94265719
C        4.77706288       0.00000000      11.94265719
C        4.77706288       2.38853144       9.55412575
C        7.16559432       4.77706288       0.00000000
C        7.16559432       7.16559432       2.38853144
C        4.77706288       4.77706288       2.38853144
C        4.77706288       7.16559432       0.00000000
C        7.16559432       4.77706288       4.77706288
C        7.16559432       7.16559432       7.16559432
C        4.77706288       4.77706288       7.16559432
C        4.77706288       7.16559432       4.77706288
C        7.16559432       4.77706288       9.55412575
C        7.16559432       7.16559432      11.94265719
C        4.77706288       4.77706288      11.94265719
C        4.77706288       7.16559432       9.55412575
C        7.16559432       9.55412575       0.00000000
C        7.16559432      11.94265719       2.38853144
C        4.77706288       9.55412575       2.38853144
C        4.77706288      11.94265719       0.00000000
C        7.16559432       9.55412575       4.77706288
C        7.16559432      11.94265719       7.16559432
C        4.77706288       9.55412575       7.16559432
C        4.77706288      11.94265719       4.77706288
C        7.16559432       9.55412575       9.55412575
C        7.16559432      11.94265719      11.94265719
C        4.77706288       9.55412575      11.94265719
C        4.77706288      11.94265719       9.55412575
C       11.94265719       0.00000000       0.00000000
C       11.94265719       2.38853144       2.38853144
C        9.55412575       0.00000000       2.38853144
C        9.55412575       2.38853144       0.00000000
C       11.94265719       0.00000000       4.77706288
C       11.94265719       2.38853144       7.16559432
C        9.55412575       0.00000000       7.16559432
C        9.55412575       2.38853144       4.77706288
C       11.94265719       0.00000000       9.55412575
C       11.94265719       2.38853144      11.94265719
C        9.55412575       0.00000000      11.94265719
C        9.55412575       2.38853144       9.55412575
C       11.94265719       4.77706288       0.00000000
C       11.94265719       7.16559432       2.38853144
C        9.55412575       4.77706288       2.38853144
C        9.55412575       7.16559432       0.00000000
C       11.94265719       4.77706288       4.77706288
C       11.94265719       7.16559432       7.16559432
C        9.55412575       4.77706288       7.16559432
C        9.55412575       7.16559432       4.77706288
C       11.94265719       4.77706288       9.55412575
C       11.94265719       7.16559432      11.94265719
C        9.55412575       4.77706288      11.94265719
C        9.55412575       7.16559432       9.55412575
C       11.94265719       9.55412575       0.00000000
C       11.94265719      11.94265719       2.38853144
C        9.55412575       9.55412575       2.38853144
C        9.55412575      11.94265719       0.00000000
C       11.94265719       9.55412575       4.77706288
C       11.94265719      11.94265719       7.16559432
C        9.55412575       9.55412575       7.16559432
C        9.55412575      11.94265719       4.77706288
C       11.94265719       9.55412575       9.55412575
C       11.94265719      11.94265719      11.94265719
C        9.55412575       9.55412575      11.94265719
C        9.55412575      11.94265719       9.55412575
