Zr C 
 1.0000000000000000
    13.8609707721309761    0.0000000000000000    0.0000000000000000
     0.0000000000000000   13.8609707721309761    0.0000000000000000
     0.0000000000000000    0.0000000000000000   13.8609707721309761
 Zr  C  
 108 108
Direct
  0.0000000000000000  0.0000000000000000  0.0000000000000000
  0.0000000000000000  0.1666666666666667  0.1666666666666667
  0.1666666666666667  0.0000000000000000  0.1666666666666667
  0.1666666666666667  0.1666666666666667  0.0000000000000000
  0.0000000000000000  0.0000000000000000  0.3333333333333333
  0.0000000000000000  0.1666666666666667  0.5000000000000000
  0.1666666666666667  0.0000000000000000  0.5000000000000000
  0.1666666666666667  0.1666666666666667  0.3333333333333333
  0.0000000000000000  0.0000000000000000  0.6666666666666666
  0.0000000000000000  0.1666666666666667  0.8333333333333335
  0.1666666666666667  0.0000000000000000  0.8333333333333335
  0.1666666666666667  0.1666666666666667  0.6666666666666666
  0.0000000000000000  0.3333333333333333  0.0000000000000000
  0.0000000000000000  0.5000000000000000  0.1666666666666667
  0.1666666666666667  0.3333333333333333  0.1666666666666667
  0.1666666666666667  0.5000000000000000  0.0000000000000000
  0.0000000000000000  0.3333333333333333  0.3333333333333333
  0.0000000000000000  0.5000000000000000  0.5000000000000000
  0.1666666666666667  0.3333333333333333  0.5000000000000000
  0.1666666666666667  0.5000000000000000  0.3333333333333333
  0.0000000000000000  0.3333333333333333  0.6666666666666666
  0.0000000000000000  0.5000000000000000  0.8333333333333335
  0.1666666666666667  0.3333333333333333  0.8333333333333335
  0.1666666666666667  0.5000000000000000  0.6666666666666666
  0.0000000000000000  0.6666666666666666  0.0000000000000000
  0.0000000000000000  0.8333333333333335  0.1666666666666667
  0.1666666666666667  0.6666666666666666  0.1666666666666667
  0.1666666666666667  0.8333333333333335  0.0000000000000000
  0.0000000000000000  0.6666666666666666  0.3333333333333333
  0.0000000000000000  0.8333333333333335  0.5000000000000000
  0.1666666666666667  0.6666666666666666  0.5000000000000000
  0.1666666666666667  0.8333333333333335  0.3333333333333333
  0.0000000000000000  0.6666666666666666  0.6666666666666666
  0.0000000000000000  0.8333333333333335  0.8333333333333335
  0.1666666666666667  0.6666666666666666  0.8333333333333335
  0.1666666666666667  0.8333333333333335  0.6666666666666666
  0.3333333333333333  0.0000000000000000  0.0000000000000000
  0.3333333333333333  0.1666666666666667  0.1666666666666667
  0.5000000000000000  0.0000000000000000  0.1666666666666667
  0.5000000000000000  0.1666666666666667  0.0000000000000000
  0.3333333333333333  0.0000000000000000  0.3333333333333333
  0.3333333333333333  0.1666666666666667  0.5000000000000000
  0.5000000000000000  0.0000000000000000  0.5000000000000000
  0.5000000000000000  0.1666666666666667  0.3333333333333333
  0.3333333333333333  0.0000000000000000  0.6666666666666666
  0.3333333333333333  0.1666666666666667  0.8333333333333335
  0.5000000000000000  0.0000000000000000  0.8333333333333335
  0.5000000000000000  0.1666666666666667  0.6666666666666666
  0.3333333333333333  0.3333333333333333  0.0000000000000000
  0.3333333333333333  0.5000000000000000  0.1666666666666667
  0.5000000000000000  0.3333333333333333  0.1666666666666667
  0.5000000000000000  0.5000000000000000  0.0000000000000000
  0.3333333333333333  0.3333333333333333  0.3333333333333333
  0.3333333333333333  0.5000000000000000  0.5000000000000000
  0.5000000000000000  0.3333333333333333  0.5000000000000000
  0.5000000000000000  0.5000000000000000  0.3333333333333333
  0.3333333333333333  0.3333333333333333  0.6666666666666666
  0.3333333333333333  0.5000000000000000  0.8333333333333335
  0.5000000000000000  0.3333333333333333  0.8333333333333335
  0.5000000000000000  0.5000000000000000  0.6666666666666666
  0.3333333333333333  0.6666666666666666  0.0000000000000000
  0.3333333333333333  0.8333333333333335  0.1666666666666667
  0.5000000000000000  0.6666666666666666  0.1666666666666667
  0.5000000000000000  0.8333333333333335  0.0000000000000000
  0.3333333333333333  0.6666666666666666  0.3333333333333333
  0.3333333333333333  0.8333333333333335  0.5000000000000000
  0.5000000000000000  0.6666666666666666  0.5000000000000000
  0.5000000000000000  0.8333333333333335  0.3333333333333333
  0.3333333333333333  0.6666666666666666  0.6666666666666666
  0.3333333333333333  0.8333333333333335  0.8333333333333335
  0.5000000000000000  0.6666666666666666  0.8333333333333335
  0.5000000000000000  0.8333333333333335  0.6666666666666666
  0.6666666666666666  0.0000000000000000  0.0000000000000000
  0.6666666666666666  0.1666666666666667  0.1666666666666667
  0.8333333333333335  0.0000000000000000  0.1666666666666667
  0.8333333333333335  0.1666666666666667  0.0000000000000000
  0.6666666666666666  0.0000000000000000  0.3333333333333333
  0.6666666666666666  0.1666666666666667  0.5000000000000000
  0.8333333333333335  0.0000000000000000  0.5000000000000000
  0.8333333333333335  0.1666666666666667  0.3333333333333333
  0.6666666666666666  0.0000000000000000  0.6666666666666666
  0.6666666666666666  0.1666666666666667  0.8333333333333335
  0.8333333333333335  0.0000000000000000  0.8333333333333335
  0.8333333333333335  0.1666666666666667  0.6666666666666666
  0.6666666666666666  0.3333333333333333  0.0000000000000000
  0.6666666666666666  0.5000000000000000  0.1666666666666667
  0.8333333333333335  0.3333333333333333  0.1666666666666667
  0.8333333333333335  0.5000000000000000  0.0000000000000000
  0.6666666666666666  0.3333333333333333  0.3333333333333333
  0.6666666666666666  0.5000000000000000  0.5000000000000000
  0.8333333333333335  0.3333333333333333  0.5000000000000000
  0.8333333333333335  0.5000000000000000  0.3333333333333333
  0.6666666666666666  0.3333333333333333  0.6666666666666666
  0.6666666666666666  0.5000000000000000  0.8333333333333335
  0.8333333333333335  0.3333333333333333  0.8333333333333335
  0.8333333333333335  0.5000000000000000  0.6666666666666666
  0.6666666666666666  0.6666666666666666  0.0000000000000000
  0.6666666666666666  0.8333333333333335  0.1666666666666667
  0.8333333333333335  0.6666666666666666  0.1666666666666667
  0.8333333333333335  0.8333333333333335  0.0000000000000000
  0.6666666666666666  0.6666666666666666  0.3333333333333333
  0.6666666666666666  0.8333333333333335  0.5000000000000000
  0.8333333333333335  0.6666666666666666  0.5000000000000000
  0.8333333333333335  0.8333333333333335  0.3333333333333333
  0.6666666666666666  0.6666666666666666  0.6666666666666666
  0.6666666666666666  0.8333333333333335  0.8333333333333335
  0.8333333333333335  0.6666666666666666  0.8333333333333335
  0.8333333333333335  0.8333333333333335  0.6666666666666666
  0.1666666666666667  0.0000000000000000  0.0000000000000000
  0.1666666666666667  0.1666666666666667  0.1666666666666667
  0.0000000000000000  0.0000000000000000  0.1666666666666667
  0.0000000000000000  0.1666666666666667  0.0000000000000000
  0.1666666666666667  0.0000000000000000  0.3333333333333333
  0.1666666666666667  0.1666666666666667  0.5000000000000000
  0.0000000000000000  0.0000000000000000  0.5000000000000000
  0.0000000000000000  0.1666666666666667  0.3333333333333333
  0.1666666666666667  0.0000000000000000  0.6666666666666666
  0.1666666666666667  0.1666666666666667  0.8333333333333335
  0.0000000000000000  0.0000000000000000  0.8333333333333335
  0.0000000000000000  0.1666666666666667  0.6666666666666666
  0.1666666666666667  0.3333333333333333  0.0000000000000000
  0.1666666666666667  0.5000000000000000  0.1666666666666667
  0.0000000000000000  0.3333333333333333  0.1666666666666667
  0.0000000000000000  0.5000000000000000  0.0000000000000000
  0.1666666666666667  0.3333333333333333  0.3333333333333333
  0.1666666666666667  0.5000000000000000  0.5000000000000000
  0.0000000000000000  0.3333333333333333  0.5000000000000000
  0.0000000000000000  0.5000000000000000  0.3333333333333333
  0.1666666666666667  0.3333333333333333  0.6666666666666666
  0.1666666666666667  0.5000000000000000  0.8333333333333335
  0.0000000000000000  0.3333333333333333  0.8333333333333335
  0.0000000000000000  0.5000000000000000  0.6666666666666666
  0.1666666666666667  0.6666666666666666  0.0000000000000000
  0.1666666666666667  0.8333333333333335  0.1666666666666667
  0.0000000000000000  0.6666666666666666  0.1666666666666667
  0.0000000000000000  0.8333333333333335  0.0000000000000000
  0.1666666666666667  0.6666666666666666  0.3333333333333333
  0.1666666666666667  0.8333333333333335  0.5000000000000000
  0.0000000000000000  0.6666666666666666  0.5000000000000000
  0.0000000000000000  0.8333333333333335  0.3333333333333333
  0.1666666666666667  0.6666666666666666  0.6666666666666666
  0.1666666666666667  0.8333333333333335  0.8333333333333335
  0.0000000000000000  0.6666666666666666  0.8333333333333335
  0.0000000000000000  0.8333333333333335  0.6666666666666666
  0.5000000000000000  0.0000000000000000  0.0000000000000000
  0.5000000000000000  0.1666666666666667  0.1666666666666667
  0.3333333333333333  0.0000000000000000  0.1666666666666667
  0.3333333333333333  0.1666666666666667  0.0000000000000000
  0.5000000000000000  0.0000000000000000  0.3333333333333333
  0.5000000000000000  0.1666666666666667  0.5000000000000000
  0.3333333333333333  0.0000000000000000  0.5000000000000000
  0.3333333333333333  0.1666666666666667  0.3333333333333333
  0.5000000000000000  0.0000000000000000  0.6666666666666666
  0.5000000000000000  0.1666666666666667  0.8333333333333335
  0.3333333333333333  0.0000000000000000  0.8333333333333335
  0.3333333333333333  0.1666666666666667  0.6666666666666666
  0.5000000000000000  0.3333333333333333  0.0000000000000000
  0.5000000000000000  0.5000000000000000  0.1666666666666667
  0.3333333333333333  0.3333333333333333  0.1666666666666667
  0.3333333333333333  0.5000000000000000  0.0000000000000000
  0.5000000000000000  0.3333333333333333  0.3333333333333333
  0.5000000000000000  0.5000000000000000  0.5000000000000000
  0.3333333333333333  0.3333333333333333  0.5000000000000000
  0.3333333333333333  0.5000000000000000  0.3333333333333333
  0.5000000000000000  0.3333333333333333  0.6666666666666666
  0.5000000000000000  0.5000000000000000  0.8333333333333335
  0.3333333333333333  0.3333333333333333  0.8333333333333335
  0.3333333333333333  0.5000000000000000  0.6666666666666666
  0.5000000000000000  0.6666666666666666  0.0000000000000000
  0.5000000000000000  0.8333333333333335  0.1666666666666667
  0.3333333333333333  0.6666666666666666  0.1666666666666667
  0.3333333333333333  0.8333333333333335  0.0000000000000000
  0.5000000000000000  0.6666666666666666  0.3333333333333333
  0.5000000000000000  0.8333333333333335  0.5000000000000000
  0.3333333333333333  0.6666666666666666  0.5000000000000000
  0.3333333333333333  0.8333333333333335  0.3333333333333333
  0.5000000000000000  0.6666666666666666  0.6666666666666666
  0.5000000000000000  0.8333333333333335  0.8333333333333335
  0.3333333333333333  0.6666666666666666  0.8333333333333335
  0.3333333333333333  0.8333333333333335  0.6666666666666666
  0.8333333333333335  0.0000000000000000  0.0000000000000000
  0.8333333333333335  0.1666666666666667  0.1666666666666667
  0.6666666666666666  0.0000000000000000  0.1666666666666667
  0.6666666666666666  0.1666666666666667  0.0000000000000000
  0.8333333333333335  0.0000000000000000  0.3333333333333333
  0.8333333333333335  0.1666666666666667  0.5000000000000000
  0.6666666666666666  0.0000000000000000  0.5000000000000000
  0.6666666666666666  0.1666666666666667  0.3333333333333333
  0.8333333333333335  0.0000000000000000  0.6666666666666666
  0.8333333333333335  0.1666666666666667  0.8333333333333335
  0.6666666666666666  0.0000000000000000  0.8333333333333335
  0.6666666666666666  0.1666666666666667  0.6666666666666666
  0.8333333333333335  0.3333333333333333  0.0000000000000000
  0.8333333333333335  0.5000000000000000  0.1666666666666667
  0.6666666666666666  0.3333333333333333  0.1666666666666667
  0.6666666666666666  0.5000000000000000  0.0000000000000000
  0.8333333333333335  0.3333333333333333  0.3333333333333333
  0.8333333333333335  0.5000000000000000  0.5000000000000000
  0.6666666666666666  0.3333333333333333  0.5000000000000000
  0.6666666666666666  0.5000000000000000  0.3333333333333333
  0.8333333333333335  0.3333333333333333  0.6666666666666666
  0.8333333333333335  0.5000000000000000  0.8333333333333335
  0.6666666666666666  0.3333333333333333  0.8333333333333335
  0.6666666666666666  0.5000000000000000  0.6666666666666666
  0.8333333333333335  0.6666666666666666  0.0000000000000000
  0.8333333333333335  0.8333333333333335  0.1666666666666667
  0.6666666666666666  0.6666666666666666  0.1666666666666667
  0.6666666666666666  0.8333333333333335  0.0000000000000000
  0.8333333333333335  0.6666666666666666  0.3333333333333333
  0.8333333333333335  0.8333333333333335  0.5000000000000000
  0.6666666666666666  0.6666666666666666  0.5000000000000000
  0.6666666666666666  0.8333333333333335  0.3333333333333333
  0.8333333333333335  0.6666666666666666  0.6666666666666666
  0.8333333333333335  0.8333333333333335  0.8333333333333335
  0.6666666666666666  0.6666666666666666  0.8333333333333335
  0.6666666666666666  0.8333333333333335  0.6666666666666666
