512
Lattice="18.8 0.0 0.0 0.0 18.8 0.0 0.0 0.0 18.8" Properties=species:S:1:pos:R:3 structure_id=zrc512_v100 reference_id=zrc_start_a4p700 provenance=ideal_starting_structure_NOT_equilibrated_NOT_DFT_labeled a_start_A=4.7 volume_ratio_to_start=1.0 pbc="T T T"
Zr       0.00000000       0.00000000       0.00000000
Zr       0.00000000       2.35000000       2.35000000
Zr       2.35000000       0.00000000       2.35000000
Zr       2.35000000       2.35000000       0.00000000
Zr       0.00000000       0.00000000       4.70000000
Zr       0.00000000       2.35000000       7.05000000
Zr       2.35000000       0.00000000       7.05000000
Zr       2.35000000       2.35000000       4.70000000
Zr       0.00000000       0.00000000       9.40000000
Zr       0.00000000       2.35000000      11.75000000
Zr       2.35000000       0.00000000      11.75000000
Zr       2.35000000       2.35000000       9.40000000
Zr       0.00000000       0.00000000      14.10000000
Zr       0.00000000       2.35000000      16.45000000
Zr       2.35000000       0.00000000      16.45000000
Zr       2.35000000       2.35000000      14.10000000
Zr       0.00000000       4.70000000       0.00000000
Zr       0.00000000       7.05000000       2.35000000
Zr       2.35000000       4.70000000       2.35000000
Zr       2.35000000       7.05000000       0.00000000
Zr       0.00000000       4.70000000       4.70000000
Zr       0.00000000       7.05000000       7.05000000
Zr       2.35000000       4.70000000       7.05000000
Zr       2.35000000       7.05000000       4.70000000
Zr       0.00000000       4.70000000       9.40000000
Zr       0.00000000       7.05000000      11.75000000
Zr       2.35000000       4.70000000      11.75000000
Zr       2.35000000       7.05000000       9.40000000
Zr       0.00000000       4.70000000      14.10000000
Zr       0.00000000       7.05000000      16.45000000
Zr       2.35000000       4.70000000      16.45000000
Zr       2.35000000       7.05000000      14.10000000
Zr       0.00000000       9.40000000       0.00000000
Zr       0.00000000      11.75000000       2.35000000
Zr       2.35000000       9.40000000       2.35000000
Zr       2.35000000      11.75000000       0.00000000
Zr       0.00000000       9.40000000       4.70000000
Zr       0.00000000      11.75000000       7.05000000
Zr       2.35000000       9.40000000       7.05000000
Zr       2.35000000      11.75000000       4.70000000
Zr       0.00000000       9.40000000       9.40000000
Zr       0.00000000      11.75000000      11.75000000
Zr       2.35000000       9.40000000      11.75000000
Zr       2.35000000      11.75000000       9.40000000
Zr       0.00000000       9.40000000      14.10000000
Zr       0.00000000      11.75000000      16.45000000
Zr       2.35000000       9.40000000      16.45000000
Zr       2.35000000      11.75000000      14.10000000
Zr       0.00000000      14.10000000       0.00000000
Zr       0.00000000      16.45000000       2.35000000
Zr       2.35000000      14.10000000       2.35000000
Zr       2.35000000      16.45000000       0.00000000
Zr       0.00000000      14.10000000       4.70000000
Zr       0.00000000      16.45000000       7.05000000
Zr       2.35000000      14.10000000       7.05000000
Zr       2.35000000      16.45000000       4.70000000
Zr       0.00000000      14.10000000       9.40000000
Zr       0.00000000      16.45000000      11.75000000
Zr       2.35000000      14.10000000      11.75000000
Zr       2.35000000      16.45000000       9.40000000
Zr       0.00000000      14.10000000      14.10000000
Zr       0.00000000      16.45000000      16.45000000
Zr       2.35000000      14.10000000      16.45000000
Zr       2.35000000      16.45000000      14.10000000
Zr       4.70000000       0.00000000       0.00000000
Zr       4.70000000       2.35000000       2.35000000
Zr       7.05000000       0.00000000       2.35000000
Zr       7.05000000       2.35000000       0.00000000
Zr       4.70000000       0.00000000       4.70000000
Zr       4.70000000       2.35000000       7.05000000
Zr       7.05000000       0.00000000       7.05000000
Zr       7.05000000       2.35000000       4.70000000
Zr       4.70000000       0.00000000       9.40000000
Zr       4.70000000       2.35000000      11.75000000
Zr       7.05000000       0.00000000      11.75000000
Zr       7.05000000       2.35000000       9.40000000
Zr       4.70000000       0.00000000      14.10000000
Zr       4.70000000       2.35000000      16.45000000
Zr       7.05000000       0.00000000      16.45000000
Zr       7.05000000       2.35000000      14.10000000
Zr       4.70000000       4.70000000       0.00000000
Zr       4.70000000       7.05000000       2.35000000
Zr       7.05000000       4.70000000       2.35000000
Zr       7.05000000       7.05000000       0.00000000
Zr       4.70000000       4.70000000       4.70000000
Zr       4.70000000       7.05000000       7.05000000
Zr       7.05000000       4.70000000       7.05000000
Zr       7.05000000       7.05000000       4.70000000
Zr       4.70000000       4.70000000       9.40000000
Zr       4.70000000       7.05000000      11.75000000
Zr       7.05000000       4.70000000      11.75000000
Zr       7.05000000       7.05000000       9.40000000
Zr       4.70000000       4.70000000      14.10000000
Zr       4.70000000       7.05000000      16.45000000
Zr       7.05000000       4.70000000      16.45000000
Zr       7.05000000       7.05000000      14.10000000
Zr       4.70000000       9.40000000       0.00000000
Zr       4.70000000      11.75000000       2.35000000
Zr       7.05000000       9.40000000       2.35000000
Zr       7.05000000      11.75000000       0.00000000
Zr       4.70000000       9.40000000       4.70000000
Zr       4.70000000      11.75000000       7.05000000
Zr       7.05000000       9.40000000       7.05000000
Zr       7.05000000      11.75000000       4.70000000
Zr       4.70000000       9.40000000       9.40000000
Zr       4.70000000      11.75000000      11.75000000
Zr       7.05000000       9.40000000      11.75000000
Zr       7.05000000      11.75000000       9.40000000
Zr       4.70000000       9.40000000      14.10000000
Zr       4.70000000      11.75000000      16.45000000
Zr       7.05000000       9.40000000      16.45000000
Zr       7.05000000      11.75000000      14.10000000
Zr       4.70000000      14.10000000       0.00000000
Zr       4.70000000      16.45000000       2.35000000
Zr       7.05000000      14.10000000       2.35000000
Zr       7.05000000      16.45000000       0.00000000
Zr       4.70000000      14.10000000       4.70000000
Zr       4.70000000      16.45000000       7.05000000
Zr       7.05000000      14.10000000       7.05000000
Zr       7.05000000      16.45000000       4.70000000
Zr       4.70000000      14.10000000       9.40000000
Zr       4.70000000      16.45000000      11.75000000
Zr       7.05000000      14.10000000      11.75000000
Zr       7.05000000      16.45000000       9.40000000
Zr       4.70000000      14.10000000      14.10000000
Zr       4.70000000      16.45000000      16.45000000
Zr       7.05000000      14.10000000      16.45000000
Zr       7.05000000      16.45000000      14.10000000
Zr       9.40000000       0.00000000       0.00000000
Zr       9.40000000       2.35000000       2.35000000
Zr      11.75000000       0.00000000       2.35000000
Zr      11.75000000       2.35000000       0.00000000
Zr       9.40000000       0.00000000       4.70000000
Zr       9.40000000       2.35000000       7.05000000
Zr      11.75000000       0.00000000       7.05000000
Zr      11.75000000       2.35000000       4.70000000
Zr       9.40000000       0.00000000       9.40000000
Zr       9.40000000       2.35000000      11.75000000
Zr      11.75000000       0.00000000      11.75000000
Zr      11.75000000       2.35000000       9.40000000
Zr       9.40000000       0.00000000      14.10000000
Zr       9.40000000       2.35000000      16.45000000
Zr      11.75000000       0.00000000      16.45000000
Zr      11.75000000       2.35000000      14.10000000
Zr       9.40000000       4.70000000       0.00000000
Zr       9.40000000       7.05000000       2.35000000
Zr      11.75000000       4.70000000       2.35000000
Zr      11.75000000       7.05000000       0.00000000
Zr       9.40000000       4.70000000       4.70000000
Zr       9.40000000       7.05000000       7.05000000
Zr      11.75000000       4.70000000       7.05000000
Zr      11.75000000       7.05000000       4.70000000
Zr       9.40000000       4.70000000       9.40000000
Zr       9.40000000       7.05000000      11.75000000
Zr      11.75000000       4.70000000      11.75000000
Zr      11.75000000       7.05000000       9.40000000
Zr       9.40000000       4.70000000      14.10000000
Zr       9.40000000       7.05000000      16.45000000
Zr      11.75000000       4.70000000      16.45000000
Zr      11.75000000       7.05000000      14.10000000
Zr       9.40000000       9.40000000       0.00000000
Zr       9.40000000      11.75000000       2.35000000
Zr      11.75000000       9.40000000       2.35000000
Zr      11.75000000      11.75000000       0.00000000
Zr       9.40000000       9.40000000       4.70000000
Zr       9.40000000      11.75000000       7.05000000
Zr      11.75000000       9.40000000       7.05000000
Zr      11.75000000      11.75000000       4.70000000
Zr       9.40000000       9.40000000       9.40000000
Zr       9.40000000      11.75000000      11.75000000
Zr      11.75000000       9.40000000      11.75000000
Zr      11.75000000      11.75000000       9.40000000
Zr       9.40000000       9.40000000      14.10000000
Zr       9.40000000      11.75000000      16.45000000
Zr      11.75000000       9.40000000      16.45000000
Zr      11.75000000      11.75000000      14.10000000
Zr       9.40000000      14.10000000       0.00000000
Zr       9.40000000      16.45000000       2.35000000
Zr      11.75000000      14.10000000       2.35000000
Zr      11.75000000      16.45000000       0.00000000
Zr       9.40000000      14.10000000       4.70000000
Zr       9.40000000      16.45000000       7.05000000
Zr      11.75000000      14.10000000       7.05000000
Zr      11.75000000      16.45000000       4.70000000
Zr       9.40000000      14.10000000       9.40000000
Zr       9.40000000      16.45000000      11.75000000
Zr      11.75000000      14.10000000      11.75000000
Zr      11.75000000      16.45000000       9.40000000
Zr       9.40000000      14.10000000      14.10000000
Zr       9.40000000      16.45000000      16.45000000
Zr      11.75000000      14.10000000      16.45000000
Zr      11.75000000      16.45000000      14.10000000
Zr      14.10000000       0.00000000       0.00000000
Zr      14.10000000       2.35000000       2.35000000
Zr      16.45000000       0.00000000       2.35000000
Zr      16.45000000       2.35000000       0.00000000
Zr      14.10000000       0.00000000       4.70000000
Zr      14.10000000       2.35000000       7.05000000
Zr      16.45000000       0.00000000       7.05000000
Zr      16.45000000       2.35000000       4.70000000
Zr      14.10000000       0.00000000       9.40000000
Zr      14.10000000       2.35000000      11.75000000
Zr      16.45000000       0.00000000      11.75000000
Zr      16.45000000       2.35000000       9.40000000
Zr      14.10000000       0.00000000      14.10000000
Zr      14.10000000       2.35000000      16.45000000
Zr      16.45000000       0.00000000      16.45000000
Zr      16.45000000       2.35000000      14.10000000
Zr      14.10000000       4.70000000       0.00000000
Zr      14.10000000       7.05000000       2.35000000
Zr      16.45000000       4.70000000       2.35000000
Zr      16.45000000       7.05000000       0.00000000
Zr      14.10000000       4.70000000       4.70000000
Zr      14.10000000       7.05000000       7.05000000
Zr      16.45000000       4.70000000       7.05000000
Zr      16.45000000       7.05000000       4.70000000
Zr      14.10000000       4.70000000       9.40000000
Zr      14.10000000       7.05000000      11.75000000
Zr      16.45000000       4.70000000      11.75000000
Zr      16.45000000       7.05000000       9.40000000
Zr      14.10000000       4.70000000      14.10000000
Zr      14.10000000       7.05000000      16.45000000
Zr      16.45000000       4.70000000      16.45000000
Zr      16.45000000       7.05000000      14.10000000
Zr      14.10000000       9.40000000       0.00000000
Zr      14.10000000      11.75000000       2.35000000
Zr      16.45000000       9.40000000       2.35000000
Zr      16.45000000      11.75000000       0.00000000
Zr      14.10000000       9.40000000       4.70000000
Zr      14.10000000      11.75000000       7.05000000
Zr      16.45000000       9.40000000       7.05000000
Zr      16.45000000      11.75000000       4.70000000
Zr      14.10000000       9.40000000       9.40000000
Zr      14.10000000      11.75000000      11.75000000
Zr      16.45000000       9.40000000      11.75000000
Zr      16.45000000      11.75000000       9.40000000
Zr      14.10000000       9.40000000      14.10000000
Zr      14.10000000      11.75000000      16.45000000
Zr      16.45000000       9.40000000      16.45000000
Zr      16.45000000      11.75000000      14.10000000
Zr      14.10000000      14.10000000       0.00000000
Zr      14.10000000      16.45000000       2.35000000
Zr      16.45000000      14.10000000       2.35000000
Zr      16.45000000      16.45000000       0.00000000
Zr      14.10000000      14.10000000       4.70000000
Zr      14.10000000      16.45000000       7.05000000
Zr      16.45000000      14.10000000       7.05000000
Zr      16.45000000      16.45000000       4.70000000
Zr      14.10000000      14.10000000       9.40000000
Zr      14.10000000      16.45000000      11.75000000
Zr      16.45000000      14.10000000      11.75000000
Zr      16.45000000      16.45000000       9.40000000
Zr      14.10000000      14.10000000      14.10000000
Zr      14.10000000      16.45000000      16.45000000
Zr      16.45000000      14.10000000      16.45000000
Zr      16.45000000      16.45000000      14.10000000
C        2.35000000       0.00000000       0.00000000
C        2.35000000       2.35000000       2.35000000
C        0.00000000       0.00000000       2.35000000
C        0.00000000       2.35000000       0.00000000
C        2.35000000       0.00000000       4.70000000
C        2.35000000       2.35000000       7.05000000
C        0.00000000       0.00000000       7.05000000
C        0.00000000       2.35000000       4.70000000
C        2.35000000       0.00000000       9.40000000
C        2.35000000       2.35000000      11.75000000
C        0.00000000       0.00000000      11.75000000
C        0.00000000       2.35000000       9.40000000
C        2.35000000       0.00000000      14.10000000
C        2.35000000       2.35000000      16.45000000
C        0.00000000       0.00000000      16.45000000
C        0.00000000       2.35000000      14.10000000
C        2.35000000       4.70000000       0.00000000
C        2.35000000       7.05000000       2.35000000
C        0.00000000       4.70000000       2.35000000
C        0.00000000       7.05000000       0.00000000
C        2.35000000       4.70000000       4.70000000
C        2.35000000       7.05000000       7.05000000
C        0.00000000       4.70000000       7.05000000
C        0.00000000       7.05000000       4.70000000
C        2.35000000       4.70000000       9.40000000
C        2.35000000       7.05000000      11.75000000
C        0.00000000       4.70000000      11.75000000
C        0.00000000       7.05000000       9.40000000
C        2.35000000       4.70000000      14.10000000
C        2.35000000       7.05000000      16.45000000
C        0.00000000       4.70000000      16.45000000
C        0.00000000       7.05000000      14.10000000
C        2.35000000       9.40000000       0.00000000
C        2.35000000      11.75000000       2.35000000
C        0.00000000       9.40000000       2.35000000
C        0.00000000      11.75000000       0.00000000
C        2.35000000       9.40000000       4.70000000
C        2.35000000      11.75000000       7.05000000
C        0.00000000       9.40000000       7.05000000
C        0.00000000      11.75000000       4.70000000
C        2.35000000       9.40000000       9.40000000
C        2.35000000      11.75000000      11.75000000
C        0.00000000       9.40000000      11.75000000
C        0.00000000      11.75000000       9.40000000
C        2.35000000       9.40000000      14.10000000
C        2.35000000      11.75000000      16.45000000
C        0.00000000       9.40000000      16.45000000
C        0.00000000      11.75000000      14.10000000
C        2.35000000      14.10000000       0.00000000
C        2.35000000      16.45000000       2.35000000
C        0.00000000      14.10000000       2.35000000
C        0.00000000      16.45000000       0.00000000
C        2.35000000      14.10000000       4.70000000
C        2.35000000      16.45000000       7.05000000
C        0.00000000      14.10000000       7.05000000
C        0.00000000      16.45000000       4.70000000
C        2.35000000      14.10000000       9.40000000
C        2.35000000      16.45000000      11.75000000
C        0.00000000      14.10000000      11.75000000
C        0.00000000      16.45000000       9.40000000
C        2.35000000      14.10000000      14.10000000
C        2.35000000      16.45000000      16.45000000
C        0.00000000      14.10000000      16.45000000
C        0.00000000      16.45000000      14.10000000
C        7.05000000       0.00000000       0.00000000
C        7.05000000       2.35000000       2.35000000
C        4.70000000       0.00000000       2.35000000
C        4.70000000       2.35000000       0.00000000
C        7.05000000       0.00000000       4.70000000
C        7.05000000       2.35000000       7.05000000
C        4.70000000       0.00000000       7.05000000
C        4.70000000       2.35000000       4.70000000
C        7.05000000       0.00000000       9.40000000
C        7.05000000       2.35000000      11.75000000
C        4.70000000       0.00000000      11.75000000
C        4.70000000       2.35000000       9.40000000
C        7.05000000       0.00000000      14.10000000
C        7.05000000       2.35000000      16.45000000
C        4.70000000       0.00000000      16.45000000
C        4.70000000       2.35000000      14.10000000
C        7.05000000       4.70000000       0.00000000
C        7.05000000       7.05000000       2.35000000
C        4.70000000       4.70000000       2.35000000
C        4.70000000       7.05000000       0.00000000
C        7.05000000       4.70000000       4.70000000
C        7.05000000       7.05000000       7.05000000
C        4.70000000       4.70000000       7.05000000
C        4.70000000       7.05000000       4.70000000
C        7.05000000       4.70000000       9.40000000
C        7.05000000       7.05000000      11.75000000
C        4.70000000       4.70000000      11.75000000
C        4.70000000       7.05000000       9.40000000
C        7.05000000       4.70000000      14.10000000
C        7.05000000       7.05000000      16.45000000
C        4.70000000       4.70000000      16.45000000
C        4.70000000       7.05000000      14.10000000
C        7.05000000       9.40000000       0.00000000
C        7.05000000      11.75000000       2.35000000
C        4.70000000       9.40000000       2.35000000
C        4.70000000      11.75000000       0.00000000
C        7.05000000       9.40000000       4.70000000
C        7.05000000      11.75000000       7.05000000
C        4.70000000       9.40000000       7.05000000
C        4.70000000      11.75000000       4.70000000
C        7.05000000       9.40000000       9.40000000
C        7.05000000      11.75000000      11.75000000
C        4.70000000       9.40000000      11.75000000
C        4.70000000      11.75000000       9.40000000
C        7.05000000       9.40000000      14.10000000
C        7.05000000      11.75000000      16.45000000
C        4.70000000       9.40000000      16.45000000
C        4.70000000      11.75000000      14.10000000
C        7.05000000      14.10000000       0.00000000
C        7.05000000      16.45000000       2.35000000
C        4.70000000      14.10000000       2.35000000
C        4.70000000      16.45000000       0.00000000
C        7.05000000      14.10000000       4.70000000
C        7.05000000      16.45000000       7.05000000
C        4.70000000      14.10000000       7.05000000
C        4.70000000      16.45000000       4.70000000
C        7.05000000      14.10000000       9.40000000
C        7.05000000      16.45000000      11.75000000
C        4.70000000      14.10000000      11.75000000
C        4.70000000      16.45000000       9.40000000
C        7.05000000      14.10000000      14.10000000
C        7.05000000      16.45000000      16.45000000
C        4.70000000      14.10000000      16.45000000
C        4.70000000      16.45000000      14.10000000
C       11.75000000       0.00000000       0.00000000
C       11.75000000       2.35000000       2.35000000
C        9.40000000       0.00000000       2.35000000
C        9.40000000       2.35000000       0.00000000
C       11.75000000       0.00000000       4.70000000
C       11.75000000       2.35000000       7.05000000
C        9.40000000       0.00000000       7.05000000
C        9.40000000       2.35000000       4.70000000
C       11.75000000       0.00000000       9.40000000
C       11.75000000       2.35000000      11.75000000
C        9.40000000       0.00000000      11.75000000
C        9.40000000       2.35000000       9.40000000
C       11.75000000       0.00000000      14.10000000
C       11.75000000       2.35000000      16.45000000
C        9.40000000       0.00000000      16.45000000
C        9.40000000       2.35000000      14.10000000
C       11.75000000       4.70000000       0.00000000
C       11.75000000       7.05000000       2.35000000
C        9.40000000       4.70000000       2.35000000
C        9.40000000       7.05000000       0.00000000
C       11.75000000       4.70000000       4.70000000
C       11.75000000       7.05000000       7.05000000
C        9.40000000       4.70000000       7.05000000
C        9.40000000       7.05000000       4.70000000
C       11.75000000       4.70000000       9.40000000
C       11.75000000       7.05000000      11.75000000
C        9.40000000       4.70000000      11.75000000
C        9.40000000       7.05000000       9.40000000
C       11.75000000       4.70000000      14.10000000
C       11.75000000       7.05000000      16.45000000
C        9.40000000       4.70000000      16.45000000
C        9.40000000       7.05000000      14.10000000
C       11.75000000       9.40000000       0.00000000
C       11.75000000      11.75000000       2.35000000
C        9.40000000       9.40000000       2.35000000
C        9.40000000      11.75000000       0.00000000
C       11.75000000       9.40000000       4.70000000
C       11.75000000      11.75000000       7.05000000
C        9.40000000       9.40000000       7.05000000
C        9.40000000      11.75000000       4.70000000
C       11.75000000       9.40000000       9.40000000
C       11.75000000      11.75000000      11.75000000
C        9.40000000       9.40000000      11.75000000
C        9.40000000      11.75000000       9.40000000
C       11.75000000       9.40000000      14.10000000
C       11.75000000      11.75000000      16.45000000
C        9.40000000       9.40000000      16.45000000
C        9.40000000      11.75000000      14.10000000
C       11.75000000      14.10000000       0.00000000
C       11.75000000      16.45000000       2.35000000
C        9.40000000      14.10000000       2.35000000
C        9.40000000      16.45000000       0.00000000
C       11.75000000      14.10000000       4.70000000
C       11.75000000      16.45000000       7.05000000
C        9.40000000      14.10000000       7.05000000
C        9.40000000      16.45000000       4.70000000
C       11.75000000      14.10000000       9.40000000
C       11.75000000      16.45000000      11.75000000
C        9.40000000      14.10000000      11.75000000
C        9.40000000      16.45000000       9.40000000
C       11.75000000      14.10000000      14.10000000
C       11.75000000      16.45000000      16.45000000
C        9.40000000      14.10000000      16.45000000
C        9.40000000      16.45000000      14.10000000
C       16.45000000       0.00000000       0.00000000
C       16.45000000       2.35000000       2.35000000
C       14.10000000       0.00000000       2.35000000
C       14.10000000       2.35000000       0.00000000
C       16.45000000       0.00000000       4.70000000
C       16.45000000       2.35000000       7.05000000
C       14.10000000       0.00000000       7.05000000
C       14.10000000       2.35000000       4.70000000
C       16.45000000       0.00000000       9.40000000
C       16.45000000       2.35000000      11.75000000
C       14.10000000       0.00000000      11.75000000
C       14.10000000       2.35000000       9.40000000
C       16.45000000       0.00000000      14.10000000
C       16.45000000       2.35000000      16.45000000
C       14.10000000       0.00000000      16.45000000
C       14.10000000       2.35000000      14.10000000
C       16.45000000       4.70000000       0.00000000
C       16.45000000       7.05000000       2.35000000
C       14.10000000       4.70000000       2.35000000
C       14.10000000       7.05000000       0.00000000
C       16.45000000       4.70000000       4.70000000
C       16.45000000       7.05000000       7.05000000
C       14.10000000       4.70000000       7.05000000
C       14.10000000       7.05000000       4.70000000
C       16.45000000       4.70000000       9.40000000
C       16.45000000       7.05000000      11.75000000
C       14.10000000       4.70000000      11.75000000
C       14.10000000       7.05000000       9.40000000
C       16.45000000       4.70000000      14.10000000
C       16.45000000       7.05000000      16.45000000
C       14.10000000       4.70000000      16.45000000
C       14.10000000       7.05000000      14.10000000
C       16.45000000       9.40000000       0.00000000
C       16.45000000      11.75000000       2.35000000
C       14.10000000       9.40000000       2.35000000
C       14.10000000      11.75000000       0.00000000
C       16.45000000       9.40000000       4.70000000
C       16.45000000      11.75000000       7.05000000
C       14.10000000       9.40000000       7.05000000
C       14.10000000      11.75000000       4.70000000
C       16.45000000       9.40000000       9.40000000
C       16.45000000      11.75000000      11.75000000
C       14.10000000       9.40000000      11.75000000
C       14.10000000      11.75000000       9.40000000
C       16.45000000       9.40000000      14.10000000
C       16.45000000      11.75000000      16.45000000
C       14.10000000       9.40000000      16.45000000
C       14.10000000      11.75000000      14.10000000
C       16.45000000      14.10000000       0.00000000
C       16.45000000      16.45000000       2.35000000
C       14.10000000      14.10000000       2.35000000
C       14.10000000      16.45000000       0.00000000
C       16.45000000      14.10000000       4.70000000
C       16.45000000      16.45000000       7.05000000
C       14.10000000      14.10000000       7.05000000
C       14.10000000      16.45000000       4.70000000
C       16.45000000      14.10000000       9.40000000
C       16.45000000      16.45000000      11.75000000
C       14.10000000      14.10000000      11.75000000
C       14.10000000      16.45000000       9.40000000
C       16.45000000      14.10000000      14.10000000
C       16.45000000      16.45000000      16.45000000
C       14.10000000      14.10000000      16.45000000
C       14.10000000      16.45000000      14.10000000
