Zr C 
 1.0000000000000000
     9.4000000000000004    0.0000000000000000    0.0000000000000000
     0.0000000000000000    9.4000000000000004    0.0000000000000000
     0.0000000000000000    0.0000000000000000    9.4000000000000004
 Zr  C  
  32  32
Direct
  0.0000000000000000  0.0000000000000000  0.0000000000000000
  0.0000000000000000  0.2500000000000000  0.2500000000000000
  0.2500000000000000  0.0000000000000000  0.2500000000000000
  0.2500000000000000  0.2500000000000000  0.0000000000000000
  0.0000000000000000  0.0000000000000000  0.4999999999999999
  0.0000000000000000  0.2500000000000000  0.7500000000000000
  0.2500000000000000  0.0000000000000000  0.7500000000000000
  0.2500000000000000  0.2500000000000000  0.4999999999999999
  0.0000000000000000  0.4999999999999999  0.0000000000000000
  0.0000000000000000  0.7500000000000000  0.2500000000000000
  0.2500000000000000  0.4999999999999999  0.2500000000000000
  0.2500000000000000  0.7500000000000000  0.0000000000000000
  0.0000000000000000  0.4999999999999999  0.4999999999999999
  0.0000000000000000  0.7500000000000000  0.7500000000000000
  0.2500000000000000  0.4999999999999999  0.7500000000000000
  0.2500000000000000  0.7500000000000000  0.4999999999999999
  0.4999999999999999  0.0000000000000000  0.0000000000000000
  0.4999999999999999  0.2500000000000000  0.2500000000000000
  0.7500000000000000  0.0000000000000000  0.2500000000000000
  0.7500000000000000  0.2500000000000000  0.0000000000000000
  0.4999999999999999  0.0000000000000000  0.4999999999999999
  0.4999999999999999  0.2500000000000000  0.7500000000000000
  0.7500000000000000  0.0000000000000000  0.7500000000000000
  0.7500000000000000  0.2500000000000000  0.4999999999999999
  0.4999999999999999  0.4999999999999999  0.0000000000000000
  0.4999999999999999  0.7500000000000000  0.2500000000000000
  0.7500000000000000  0.4999999999999999  0.2500000000000000
  0.7500000000000000  0.7500000000000000  0.0000000000000000
  0.4999999999999999  0.4999999999999999  0.4999999999999999
  0.4999999999999999  0.7500000000000000  0.7500000000000000
  0.7500000000000000  0.4999999999999999  0.7500000000000000
  0.7500000000000000  0.7500000000000000  0.4999999999999999
  0.2500000000000000  0.0000000000000000  0.0000000000000000
  0.2500000000000000  0.2500000000000000  0.2500000000000000
  0.0000000000000000  0.0000000000000000  0.2500000000000000
  0.0000000000000000  0.2500000000000000  0.0000000000000000
  0.2500000000000000  0.0000000000000000  0.4999999999999999
  0.2500000000000000  0.2500000000000000  0.7500000000000000
  0.0000000000000000  0.0000000000000000  0.7500000000000000
  0.0000000000000000  0.2500000000000000  0.4999999999999999
  0.2500000000000000  0.4999999999999999  0.0000000000000000
  0.2500000000000000  0.7500000000000000  0.2500000000000000
  0.0000000000000000  0.4999999999999999  0.2500000000000000
  0.0000000000000000  0.7500000000000000  0.0000000000000000
  0.2500000000000000  0.4999999999999999  0.4999999999999999
  0.2500000000000000  0.7500000000000000  0.7500000000000000
  0.0000000000000000  0.4999999999999999  0.7500000000000000
  0.0000000000000000  0.7500000000000000  0.4999999999999999
  0.7500000000000000  0.0000000000000000  0.0000000000000000
  0.7500000000000000  0.2500000000000000  0.2500000000000000
  0.4999999999999999  0.0000000000000000  0.2500000000000000
  0.4999999999999999  0.2500000000000000  0.0000000000000000
  0.7500000000000000  0.0000000000000000  0.4999999999999999
  0.7500000000000000  0.2500000000000000  0.7500000000000000
  0.4999999999999999  0.0000000000000000  0.7500000000000000
  0.4999999999999999  0.2500000000000000  0.4999999999999999
  0.7500000000000000  0.4999999999999999  0.0000000000000000
  0.7500000000000000  0.7500000000000000  0.2500000000000000
  0.4999999999999999  0.4999999999999999  0.2500000000000000
  0.4999999999999999  0.7500000000000000  0.0000000000000000
  0.7500000000000000  0.4999999999999999  0.4999999999999999
  0.7500000000000000  0.7500000000000000  0.7500000000000000
  0.4999999999999999  0.4999999999999999  0.7500000000000000
  0.4999999999999999  0.7500000000000000  0.4999999999999999
