64
Lattice="9.4 0.0 0.0 0.0 9.4 0.0 0.0 0.0 9.4" Properties=species:S:1:pos:R:3 structure_id=zrc64_v100 reference_id=zrc_start_a4p700 provenance=ideal_starting_structure_NOT_equilibrated_NOT_DFT_labeled a_start_A=4.7 volume_ratio_to_start=1.0 pbc="T T T"
Zr       0.00000000       0.00000000       0.00000000
Zr       0.00000000       2.35000000       2.35000000
Zr       2.35000000       0.00000000       2.35000000
Zr       2.35000000       2.35000000       0.00000000
Zr       0.00000000       0.00000000       4.70000000
Zr       0.00000000       2.35000000       7.05000000
Zr       2.35000000       0.00000000       7.05000000
Zr       2.35000000       2.35000000       4.70000000
Zr       0.00000000       4.70000000       0.00000000
Zr       0.00000000       7.05000000       2.35000000
Zr       2.35000000       4.70000000       2.35000000
Zr       2.35000000       7.05000000       0.00000000
Zr       0.00000000       4.70000000       4.70000000
Zr       0.00000000       7.05000000       7.05000000
Zr       2.35000000       4.70000000       7.05000000
Zr       2.35000000       7.05000000       4.70000000
Zr       4.70000000       0.00000000       0.00000000
Zr       4.70000000       2.35000000       2.35000000
Zr       7.05000000       0.00000000       2.35000000
Zr       7.05000000       2.35000000       0.00000000
Zr       4.70000000       0.00000000       4.70000000
Zr       4.70000000       2.35000000       7.05000000
Zr       7.05000000       0.00000000       7.05000000
Zr       7.05000000       2.35000000       4.70000000
Zr       4.70000000       4.70000000       0.00000000
Zr       4.70000000       7.05000000       2.35000000
Zr       7.05000000       4.70000000       2.35000000
Zr       7.05000000       7.05000000       0.00000000
Zr       4.70000000       4.70000000       4.70000000
Zr       4.70000000       7.05000000       7.05000000
Zr       7.05000000       4.70000000       7.05000000
Zr       7.05000000       7.05000000       4.70000000
C        2.35000000       0.00000000       0.00000000
C        2.35000000       2.35000000       2.35000000
C        0.00000000       0.00000000       2.35000000
C        0.00000000       2.35000000       0.00000000
C        2.35000000       0.00000000       4.70000000
C        2.35000000       2.35000000       7.05000000
C        0.00000000       0.00000000       7.05000000
C        0.00000000       2.35000000       4.70000000
C        2.35000000       4.70000000       0.00000000
C        2.35000000       7.05000000       2.35000000
C        0.00000000       4.70000000       2.35000000
C        0.00000000       7.05000000       0.00000000
C        2.35000000       4.70000000       4.70000000
C        2.35000000       7.05000000       7.05000000
C        0.00000000       4.70000000       7.05000000
C        0.00000000       7.05000000       4.70000000
C        7.05000000       0.00000000       0.00000000
C        7.05000000       2.35000000       2.35000000
C        4.70000000       0.00000000       2.35000000
C        4.70000000       2.35000000       0.00000000
C        7.05000000       0.00000000       4.70000000
C        7.05000000       2.35000000       7.05000000
C        4.70000000       0.00000000       7.05000000
C        4.70000000       2.35000000       4.70000000
C        7.05000000       4.70000000       0.00000000
C        7.05000000       7.05000000       2.35000000
C        4.70000000       4.70000000       2.35000000
C        4.70000000       7.05000000       0.00000000
C        7.05000000       4.70000000       4.70000000
C        7.05000000       7.05000000       7.05000000
C        4.70000000       4.70000000       7.05000000
C        4.70000000       7.05000000       4.70000000
