64
Lattice="9.24064718142065 0.0 0.0 0.0 9.24064718142065 0.0 0.0 0.0 9.24064718142065" Properties=species:S:1:pos:R:3 structure_id=zrc64_v095 reference_id=zrc_start_a4p700 provenance=ideal_starting_structure_NOT_equilibrated_NOT_DFT_labeled a_start_A=4.7 volume_ratio_to_start=0.95 pbc="T T T"
Zr       0.00000000       0.00000000       0.00000000
Zr       0.00000000       2.31016180       2.31016180
Zr       2.31016180       0.00000000       2.31016180
Zr       2.31016180       2.31016180       0.00000000
Zr       0.00000000       0.00000000       4.62032359
Zr       0.00000000       2.31016180       6.93048539
Zr       2.31016180       0.00000000       6.93048539
Zr       2.31016180       2.31016180       4.62032359
Zr       0.00000000       4.62032359       0.00000000
Zr       0.00000000       6.93048539       2.31016180
Zr       2.31016180       4.62032359       2.31016180
Zr       2.31016180       6.93048539       0.00000000
Zr       0.00000000       4.62032359       4.62032359
Zr       0.00000000       6.93048539       6.93048539
Zr       2.31016180       4.62032359       6.93048539
Zr       2.31016180       6.93048539       4.62032359
Zr       4.62032359       0.00000000       0.00000000
Zr       4.62032359       2.31016180       2.31016180
Zr       6.93048539       0.00000000       2.31016180
Zr       6.93048539       2.31016180       0.00000000
Zr       4.62032359       0.00000000       4.62032359
Zr       4.62032359       2.31016180       6.93048539
Zr       6.93048539       0.00000000       6.93048539
Zr       6.93048539       2.31016180       4.62032359
Zr       4.62032359       4.62032359       0.00000000
Zr       4.62032359       6.93048539       2.31016180
Zr       6.93048539       4.62032359       2.31016180
Zr       6.93048539       6.93048539       0.00000000
Zr       4.62032359       4.62032359       4.62032359
Zr       4.62032359       6.93048539       6.93048539
Zr       6.93048539       4.62032359       6.93048539
Zr       6.93048539       6.93048539       4.62032359
C        2.31016180       0.00000000       0.00000000
C        2.31016180       2.31016180       2.31016180
C        0.00000000       0.00000000       2.31016180
C        0.00000000       2.31016180       0.00000000
C        2.31016180       0.00000000       4.62032359
C        2.31016180       2.31016180       6.93048539
C        0.00000000       0.00000000       6.93048539
C        0.00000000       2.31016180       4.62032359
C        2.31016180       4.62032359       0.00000000
C        2.31016180       6.93048539       2.31016180
C        0.00000000       4.62032359       2.31016180
C        0.00000000       6.93048539       0.00000000
C        2.31016180       4.62032359       4.62032359
C        2.31016180       6.93048539       6.93048539
C        0.00000000       4.62032359       6.93048539
C        0.00000000       6.93048539       4.62032359
C        6.93048539       0.00000000       0.00000000
C        6.93048539       2.31016180       2.31016180
C        4.62032359       0.00000000       2.31016180
C        4.62032359       2.31016180       0.00000000
C        6.93048539       0.00000000       4.62032359
C        6.93048539       2.31016180       6.93048539
C        4.62032359       0.00000000       6.93048539
C        4.62032359       2.31016180       4.62032359
C        6.93048539       4.62032359       0.00000000
C        6.93048539       6.93048539       2.31016180
C        4.62032359       4.62032359       2.31016180
C        4.62032359       6.93048539       0.00000000
C        6.93048539       4.62032359       4.62032359
C        6.93048539       6.93048539       6.93048539
C        4.62032359       4.62032359       6.93048539
C        4.62032359       6.93048539       4.62032359
