Zr C 
 1.0000000000000000
     9.5541257540596227    0.0000000000000000    0.0000000000000000
     0.0000000000000000    9.5541257540596227    0.0000000000000000
     0.0000000000000000    0.0000000000000000    9.5541257540596227
 Zr  C  
  32  32
Direct
  0.0000000000000000  0.0000000000000000  0.0000000000000000
  0.0000000000000000  0.2500000000000000  0.2500000000000000
  0.2500000000000000  0.0000000000000000  0.2500000000000000
  0.2500000000000000  0.2500000000000000  0.0000000000000000
  0.0000000000000000  0.0000000000000000  0.4999999999999999
  0.0000000000000000  0.2500000000000000  0.7500000000000001
  0.2500000000000000  0.0000000000000000  0.7500000000000001
  0.2500000000000000  0.2500000000000000  0.4999999999999999
  0.0000000000000000  0.4999999999999999  0.0000000000000000
  0.0000000000000000  0.7500000000000001  0.2500000000000000
  0.2500000000000000  0.4999999999999999  0.2500000000000000
  0.2500000000000000  0.7500000000000001  0.0000000000000000
  0.0000000000000000  0.4999999999999999  0.4999999999999999
  0.0000000000000000  0.7500000000000001  0.7500000000000001
  0.2500000000000000  0.4999999999999999  0.7500000000000001
  0.2500000000000000  0.7500000000000001  0.4999999999999999
  0.4999999999999999  0.0000000000000000  0.0000000000000000
  0.4999999999999999  0.2500000000000000  0.2500000000000000
  0.7500000000000001  0.0000000000000000  0.2500000000000000
  0.7500000000000001  0.2500000000000000  0.0000000000000000
  0.4999999999999999  0.0000000000000000  0.4999999999999999
  0.4999999999999999  0.2500000000000000  0.7500000000000001
  0.7500000000000001  0.0000000000000000  0.7500000000000001
  0.7500000000000001  0.2500000000000000  0.4999999999999999
  0.4999999999999999  0.4999999999999999  0.0000000000000000
  0.4999999999999999  0.7500000000000001  0.2500000000000000
  0.7500000000000001  0.4999999999999999  0.2500000000000000
  0.7500000000000001  0.7500000000000001  0.0000000000000000
  0.4999999999999999  0.4999999999999999  0.4999999999999999
  0.4999999999999999  0.7500000000000001  0.7500000000000001
  0.7500000000000001  0.4999999999999999  0.7500000000000001
  0.7500000000000001  0.7500000000000001  0.4999999999999999
  0.2500000000000000  0.0000000000000000  0.0000000000000000
  0.2500000000000000  0.2500000000000000  0.2500000000000000
  0.0000000000000000  0.0000000000000000  0.2500000000000000
  0.0000000000000000  0.2500000000000000  0.0000000000000000
  0.2500000000000000  0.0000000000000000  0.4999999999999999
  0.2500000000000000  0.2500000000000000  0.7500000000000001
  0.0000000000000000  0.0000000000000000  0.7500000000000001
  0.0000000000000000  0.2500000000000000  0.4999999999999999
  0.2500000000000000  0.4999999999999999  0.0000000000000000
  0.2500000000000000  0.7500000000000001  0.2500000000000000
  0.0000000000000000  0.4999999999999999  0.2500000000000000
  0.0000000000000000  0.7500000000000001  0.0000000000000000
  0.2500000000000000  0.4999999999999999  0.4999999999999999
  0.2500000000000000  0.7500000000000001  0.7500000000000001
  0.0000000000000000  0.4999999999999999  0.7500000000000001
  0.0000000000000000  0.7500000000000001  0.4999999999999999
  0.7500000000000001  0.0000000000000000  0.0000000000000000
  0.7500000000000001  0.2500000000000000  0.2500000000000000
  0.4999999999999999  0.0000000000000000  0.2500000000000000
  0.4999999999999999  0.2500000000000000  0.0000000000000000
  0.7500000000000001  0.0000000000000000  0.4999999999999999
  0.7500000000000001  0.2500000000000000  0.7500000000000001
  0.4999999999999999  0.0000000000000000  0.7500000000000001
  0.4999999999999999  0.2500000000000000  0.4999999999999999
  0.7500000000000001  0.4999999999999999  0.0000000000000000
  0.7500000000000001  0.7500000000000001  0.2500000000000000
  0.4999999999999999  0.4999999999999999  0.2500000000000000
  0.4999999999999999  0.7500000000000001  0.0000000000000000
  0.7500000000000001  0.4999999999999999  0.4999999999999999
  0.7500000000000001  0.7500000000000001  0.7500000000000001
  0.4999999999999999  0.4999999999999999  0.7500000000000001
  0.4999999999999999  0.7500000000000001  0.4999999999999999
