64
Lattice="9.554125754059623 0.0 0.0 0.0 9.554125754059623 0.0 0.0 0.0 9.554125754059623" Properties=species:S:1:pos:R:3 structure_id=zrc64_v105 reference_id=zrc_start_a4p700 provenance=ideal_starting_structure_NOT_equilibrated_NOT_DFT_labeled a_start_A=4.7 volume_ratio_to_start=1.05 pbc="T T T"
Zr       0.00000000       0.00000000       0.00000000
Zr       0.00000000       2.38853144       2.38853144
Zr       2.38853144       0.00000000       2.38853144
Zr       2.38853144       2.38853144       0.00000000
Zr       0.00000000       0.00000000       4.77706288
Zr       0.00000000       2.38853144       7.16559432
Zr       2.38853144       0.00000000       7.16559432
Zr       2.38853144       2.38853144       4.77706288
Zr       0.00000000       4.77706288       0.00000000
Zr       0.00000000       7.16559432       2.38853144
Zr       2.38853144       4.77706288       2.38853144
Zr       2.38853144       7.16559432       0.00000000
Zr       0.00000000       4.77706288       4.77706288
Zr       0.00000000       7.16559432       7.16559432
Zr       2.38853144       4.77706288       7.16559432
Zr       2.38853144       7.16559432       4.77706288
Zr       4.77706288       0.00000000       0.00000000
Zr       4.77706288       2.38853144       2.38853144
Zr       7.16559432       0.00000000       2.38853144
Zr       7.16559432       2.38853144       0.00000000
Zr       4.77706288       0.00000000       4.77706288
Zr       4.77706288       2.38853144       7.16559432
Zr       7.16559432       0.00000000       7.16559432
Zr       7.16559432       2.38853144       4.77706288
Zr       4.77706288       4.77706288       0.00000000
Zr       4.77706288       7.16559432       2.38853144
Zr       7.16559432       4.77706288       2.38853144
Zr       7.16559432       7.16559432       0.00000000
Zr       4.77706288       4.77706288       4.77706288
Zr       4.77706288       7.16559432       7.16559432
Zr       7.16559432       4.77706288       7.16559432
Zr       7.16559432       7.16559432       4.77706288
C        2.38853144       0.00000000       0.00000000
C        2.38853144       2.38853144       2.38853144
C        0.00000000       0.00000000       2.38853144
C        0.00000000       2.38853144       0.00000000
C        2.38853144       0.00000000       4.77706288
C        2.38853144       2.38853144       7.16559432
C        0.00000000       0.00000000       7.16559432
C        0.00000000       2.38853144       4.77706288
C        2.38853144       4.77706288       0.00000000
C        2.38853144       7.16559432       2.38853144
C        0.00000000       4.77706288       2.38853144
C        0.00000000       7.16559432       0.00000000
C        2.38853144       4.77706288       4.77706288
C        2.38853144       7.16559432       7.16559432
C        0.00000000       4.77706288       7.16559432
C        0.00000000       7.16559432       4.77706288
C        7.16559432       0.00000000       0.00000000
C        7.16559432       2.38853144       2.38853144
C        4.77706288       0.00000000       2.38853144
C        4.77706288       2.38853144       0.00000000
C        7.16559432       0.00000000       4.77706288
C        7.16559432       2.38853144       7.16559432
C        4.77706288       0.00000000       7.16559432
C        4.77706288       2.38853144       4.77706288
C        7.16559432       4.77706288       0.00000000
C        7.16559432       7.16559432       2.38853144
C        4.77706288       4.77706288       2.38853144
C        4.77706288       7.16559432       0.00000000
C        7.16559432       4.77706288       4.77706288
C        7.16559432       7.16559432       7.16559432
C        4.77706288       4.77706288       7.16559432
C        4.77706288       7.16559432       4.77706288
