Zr C 
 1.0000000000000000
     4.7000000000000002    0.0000000000000000    0.0000000000000000
     0.0000000000000000    4.7000000000000002    0.0000000000000000
     0.0000000000000000    0.0000000000000000    4.7000000000000002
 Zr  C  
   4   4
Direct
  0.0000000000000000  0.0000000000000000  0.0000000000000000
  0.0000000000000000  0.4999999999999999  0.4999999999999999
  0.4999999999999999  0.0000000000000000  0.4999999999999999
  0.4999999999999999  0.4999999999999999  0.0000000000000000
  0.4999999999999999  0.0000000000000000  0.0000000000000000
  0.4999999999999999  0.4999999999999999  0.4999999999999999
  0.0000000000000000  0.0000000000000000  0.4999999999999999
  0.0000000000000000  0.4999999999999999  0.0000000000000000
