Zr C 
 1.0000000000000000
     9.2406471814206501    0.0000000000000000    0.0000000000000000
     0.0000000000000000    9.2406471814206501    0.0000000000000000
     0.0000000000000000    0.0000000000000000    9.2406471814206501
 Zr  C  
  32  32
Direct
  0.9819492578035690  0.9889335575753172  0.0290577710335997
  0.0257744923406310  0.2342976360306341  0.2694836726378680
  0.2403861392377601  0.0020589488621808  0.2687002469905221
  0.2101302400013803  0.2459800721068704  0.0321024679522927
  0.0021509088714005  0.9662930123956843  0.4557412438024229
  0.9769600293334358  0.2321317054840981  0.7711120065623499
  0.2480654054846823  0.0212553077878473  0.7366206832012734
  0.2961477390352304  0.2943884304412732  0.4924945894644944
  0.9917034707099147  0.5333808869913214  0.9745048257579096
  0.9835369950812675  0.7153992810472900  0.2398281490993240
  0.2487408549285859  0.5025188256658552  0.2595593201331660
  0.2438892445251350  0.7535194692856473  0.9865592671636982
  0.0128054569855147  0.4861034234735729  0.4822612726693105
  0.0023406055415130  0.7435563846453086  0.7243940493106121
  0.2230008103916369  0.5066066226846559  0.7812794913884024
  0.2565530685736589  0.7313960967570393  0.5136343858623877
  0.4713407897184090  0.0476661852089328  0.9739357584732531
  0.5160094186462524  0.2596954469623051  0.2729971072883411
  0.7282154883620890  0.9764786896704583  0.2607017953075483
  0.7473240623107865  0.2434546050544196  0.0251401558179916
  0.5072198113378698  0.9910551384143106  0.4825055153025038
  0.4613041582813303  0.3032851936642318  0.7345469756325516
  0.7349515046581284  0.0097942014474884  0.7660370871244246
  0.7695110721570471  0.2376663632841309  0.5143658357129556
  0.5129608150747794  0.5196195943563556  0.0155796198224578
  0.4901063671282524  0.7485235313287451  0.2361885241531815
  0.7780938173309416  0.4547614303951753  0.2536226753373015
  0.7295806936071679  0.7600078438359221  0.9848544796427903
  0.5184815431145396  0.4969893103627783  0.4931535790223084
  0.5097763487249370  0.7283604273445764  0.7438868431013073
  0.7482097145642840  0.4984266891241604  0.7512249525073602
  0.7356423902503016  0.7306231346625269  0.4662097346019090
  0.2334438073057517  0.9889168217345298  0.9951852787876747
  0.2183479393149825  0.2733893135839442  0.2805379330153642
  0.0010158141324639  0.0008119074186800  0.2459959833300903
  0.9721370976572210  0.2928756673495163  0.0056405010359877
  0.2111092645028449  0.7381922626735261  0.7631612863846853
  0.2329182780971738  0.2926841288170682  0.7580433201782611
  0.2246983213659265  0.0770923741610140  0.5070825135950719
  0.0110369618055605  0.2346408078818845  0.5132435939698825
  0.2621773467199445  0.5075987923693110  0.0370383819748198
  0.2770279461753500  0.7351226431042731  0.2934080380702480
  0.0157714278165519  0.4887235667952096  0.2024694724587853
  0.9649012462404027  0.7550921156289920  0.0288363449841220
  0.2392129497644301  0.5222508624399254  0.5050311648499199
  0.9624765934016167  0.7208960971882069  0.4827777635499055
  0.9668465710263272  0.5020744130701382  0.7035272153958089
  0.1263780476705162  0.1963223727064856  0.6046499298484205
  0.7497099893532483  0.0080987249627352  0.9996924165651825
  0.7350415708605988  0.2083427970143557  0.2360569511176430
  0.4939612464782206  0.0026413485463523  0.2794162366886350
  0.4782680772496011  0.3095646672617812  0.0363389114861082
  0.7463100337675433  0.9614217778256096  0.4999692953637603
  0.7490180583797494  0.2487117833717213  0.7272534745739343
  0.4465009700073495  0.9746827072382572  0.7371793583566650
  0.5150579246840461  0.2344456440622306  0.5002579331558581
  0.7425410023007836  0.5330002588890959  0.0114177836171621
  0.7717637845040626  0.7189876530897449  0.2542329983903599
  0.4632223150567170  0.5225367601642008  0.2811680155069570
  0.4661372829665575  0.7760039258308280  0.0060570822477171
  0.7940355697978237  0.4817916518824975  0.4975019876576679
  0.7336565401642929  0.7468639354477515  0.7250135589496676
  0.4391914798088918  0.5233865004308552  0.7949053573616386
  0.4938459104006628  0.6945296259015179  0.5455126195203374
