Zr C 
 1.0000000000000000
     9.2406471814206501    0.0000000000000000    0.0000000000000000
     0.0000000000000000    9.2406471814206501    0.0000000000000000
     0.0000000000000000    0.0000000000000000    9.2406471814206501
 Zr  C  
  32  32
Direct
  0.0713018922878847  0.0325489042157932  0.7972075707242939
  0.2677222635416819  0.3578976088005508  0.1083673264804866
  0.5033583600911332  0.0339048375367668  0.0784951947368351
  0.0743144724084602  0.1317297594098661  0.3312212198269537
  0.6791695134317570  0.9780459759996148  0.3848775901465134
  0.7776756011060955  0.6144023863842780  0.5218901485273001
  0.6765430350560002  0.6328324993489923  0.2661132310649799
  0.4453647011082283  0.5735875080975803  0.4272419401465600
  0.5694349679317248  0.1538790769372001  0.7326373691240941
  0.0996837418954173  0.7399356501509465  0.9403031249684408
  0.4970990072249243  0.6336100215764175  0.9108508770817501
  0.1343587267887792  0.6255881364698157  0.4248859191718470
  0.8452626572655085  0.2187963602879563  0.6744947174838223
  0.6613527851477227  0.3404089114996108  0.1045027724834678
  0.2440169109078935  0.2726156469933211  0.7911876924269713
  0.9575026865229124  0.8777020819826488  0.5140644996760599
  0.3325720233295966  0.8749121465946617  0.5879810520571499
  0.7934312874472080  0.8326421061601182  0.1383411350852447
  0.7272352745499859  0.4474241737432471  0.7865468616325413
  0.2826957764659930  0.8495057074794409  0.3163509322028434
  0.4764641181033720  0.4112188645250766  0.6060190004698794
  0.8488821395293262  0.0843529911592365  0.0434534802721759
  0.0026553248401621  0.5489456777658446  0.7414282079479513
  0.5776661293521369  0.8050693424328185  0.6641949540439451
  0.2743173730403470  0.5349500250761304  0.8254201704352938
  0.7159809816462273  0.3603986802218056  0.4167593691644367
  0.9589413085499581  0.4698387066145429  0.2723444452094202
  0.1867007033931701  0.0275514056083906  0.0413396229181938
  0.9276796866193893  0.4439908005847318  0.0095103273909966
  0.7977684273913215  0.7754181670745708  0.8429348818404389
  0.4996762206529927  0.2484892470104008  0.3521279133503017
  0.0810531443626497  0.3479728622303056  0.5463873407212777
  0.1705940937329776  0.4070004794039864  0.3155317732813157
  0.2774909083376325  0.1356375149264498  0.2106403732559133
  0.7319255315362219  0.6182183973982630  0.9912927647815487
  0.0496389916824885  0.1923732012595578  0.1097446932114219
  0.4831016935498865  0.7232403651183638  0.1208416693655189
  0.0566223252254459  0.1764951510408454  0.9711261564063276
  0.8607503040926432  0.1570468454761294  0.3933484775079563
  0.3047145017160753  0.4211646883158753  0.3749961393988220
  0.3704047456179507  0.0694457984188496  0.8177455747031638
  0.2506481055414472  0.6499950297936367  0.0725195645763174
  0.7864953729683808  0.2661788564923710  0.9242281574986339
  0.5646198710508361  0.8139333427990143  0.2143593519513771
  0.1138264484456047  0.5910987925610753  0.0995763480560175
  0.0134912704221257  0.7862104230759160  0.6849660599689246
  0.6759090200931598  0.1397546065839630  0.2052284630444890
  0.9616588023496500  0.9008660666903835  0.9639876047590653
  0.4803587197793628  0.2535556767832127  0.9486984458865825
  0.9271403932233574  0.7024048168910588  0.2762489875938426
  0.8212084609460600  0.2211977658372630  0.2468321390503883
  0.3810237724105000  0.6457940363115566  0.6492990117515637
  0.1640100103645554  0.0476864855813706  0.5317514112950439
  0.0613954126827164  0.7213244720999347  0.1713836041444743
  0.2584359108766992  0.1382585088378608  0.5182116258727024
  0.6123144492927297  0.9119812730155978  0.9229194496861535
  0.3684059602907568  0.1708838705944332  0.5911283334745353
  0.1650996081364076  0.8161871827726771  0.6976335763995219
  0.5267886993659266  0.0216915822716795  0.5390809042677361
  0.9616453952800402  0.2551422776231223  0.8776499407667914
  0.3490236889082111  0.6308307292286220  0.2187505800984257
  0.0840476564846617  0.8876983073126640  0.2131204113645838
  0.7806828091548154  0.9973330329643794  0.6983624644337111
  0.4785694825457150  0.4014969953661801  0.9137310400700644
