Zr C 
 1.0000000000000000
     9.2406471814206501    0.0000000000000000    0.0000000000000000
     0.0000000000000000    9.2406471814206501    0.0000000000000000
     0.0000000000000000    0.0000000000000000    9.2406471814206501
 Zr  C  
  32  32
Direct
  0.9463256728384529  0.0115081560752383  0.9892428216283530
  0.9355301216133640  0.0925923296498437  0.2978599773329778
  0.1983479213106605  0.9920342256819417  0.8844956539249766
  0.2033249709801329  0.3135382352683410  0.8874349653678604
  0.0265758550433310  0.0190644720592953  0.6685862243958299
  0.7415009833074525  0.3208210433529641  0.9657456955983481
  0.2474999743089844  0.7545124853851147  0.6467588430403834
  0.2552279817307569  0.2038574996984562  0.5760865765661213
  0.1028567243548711  0.7205507925232082  0.9683763892005804
  0.9901209516814422  0.7727891152859856  0.2061464108087652
  0.2683511523939351  0.4630907918012416  0.1426565135665460
  0.3758451828983320  0.5176920129164093  0.8172322147094084
  0.3880241870081607  0.5160987294903736  0.4901977243658383
  0.7821303789145986  0.7278504868709833  0.9679429681054972
  0.9311836738796215  0.5669513073211568  0.7301420980086293
  0.2339090355430817  0.8778818810776019  0.4281590685504060
  0.4537512998473098  0.7948198851469935  0.8582117459657660
  0.2717500690913662  0.0998262342333237  0.1848771505349644
  0.9584089551440310  0.3314716923895253  0.5203365668659566
  0.5484832978138655  0.1283489280258032  0.3969942697710497
  0.5172395024030323  0.9813844034272984  0.6404537565181814
  0.7591933965518476  0.1461795016604378  0.7338034140761905
  0.4746847232539441  0.1647010918304553  0.9303984624893155
  0.9345442965686673  0.6493382294764247  0.4475345610332251
  0.5934563036911562  0.5960507312814880  0.1403415306892632
  0.4018279074073623  0.7437346622018106  0.2224998876846963
  0.9273163104018228  0.3923027552971323  0.2335999565420196
  0.6327645494090883  0.9930298938855550  0.1704933657858571
  0.5453342716224419  0.3097382535884213  0.1981673343920998
  0.6781237187151890  0.3919950571517343  0.6558526389997137
  0.6164245672589651  0.7637924218328308  0.4352621056766334
  0.7994295015237548  0.8264178146909781  0.6426209954146372
  0.6417719035247179  0.5756388515855952  0.8558843224014033
  0.1103846776068754  0.9778011468274170  0.1371395071275920
  0.8144558193448518  0.1670704594267013  0.4921613822832711
  0.9851990756367162  0.2549653356246617  0.9027265339372249
  0.5221496747220478  0.2055878689146728  0.6461476650688497
  0.3240530691422453  0.3002889727874444  0.3814356623923676
  0.1775316531182386  0.4579295872812928  0.6156563797218116
  0.1210783084814185  0.2435388188529471  0.3678771067934417
  0.3595364334091181  0.6334545422066512  0.9914479615498262
  0.0724326853800621  0.2230682266653858  0.0579275065361499
  0.9598975057996935  0.8465061273768285  0.8108347407187489
  0.0886580770713992  0.5513299090396343  0.5731326937867602
  0.4144485797163845  0.3472675860249275  0.0191373360034305
  0.7808154731767808  0.7257066348646183  0.2175352287685016
  0.9653141231661305  0.2724279523474865  0.7509314092146941
  0.1362892138693667  0.6279726653418090  0.3260177237431159
  0.4278853776096097  0.4994442282440291  0.2914246587441549
  0.8023971127787853  0.9517731148857167  0.3923367767237518
  0.9583455191109814  0.9035383515353563  0.4640940505360453
  0.7510714383679120  0.2040418049712973  0.2231752992524649
  0.5553345495451611  0.6193036947592708  0.6140084951417557
  0.8483834915548355  0.5127191956344778  0.0547739263973864
  0.4206014788460382  0.3001489999073412  0.6758106619561749
  0.4863028737895319  0.9452836008048663  0.3189651765869999
  0.7386600923065025  0.0633449441914532  0.9435756814686826
  0.6827751775530960  0.9492938760433645  0.8297504362482558
  0.3198618648640569  0.8112345859359517  0.0158747182010089
  0.4391961742852795  0.7045674747857927  0.6509118174660070
  0.8738635921773766  0.6035107379938536  0.1898910396154992
  0.7254066288211484  0.0197509660304216  0.5072152694481974
  0.6814493743101551  0.6240914296127671  0.7107564969264700
  0.7930517653281240  0.4801762596153831  0.3751415546921742
