Zr C 
 1.0000000000000000
     9.2406471814206501    0.0000000000000000    0.0000000000000000
     0.0000000000000000    9.2406471814206501    0.0000000000000000
     0.0000000000000000    0.0000000000000000    9.2406471814206501
 Zr  C  
  32  32
Direct
  0.0024628220895348  0.0007634908964153  0.0001127237064190
  0.0003101828198530  0.2579468822045803  0.2515372413171881
  0.2426749388840148  0.0045487939507650  0.2441391036480590
  0.2519862445004654  0.2537445996979962  0.9929456629259620
  0.0024768276020772  0.0084443176400988  0.5058646573368407
  0.9995104780096902  0.2492667748024418  0.7568617265316653
  0.2518268563135685  0.9962864310987878  0.7473975279443804
  0.2525602270252678  0.2467135532004487  0.5052189417410763
  0.9891415592403806  0.5020897604800345  0.9985736507691256
  0.9987076716851595  0.7472339971904914  0.2510096851943007
  0.2560400395718016  0.5036918798672747  0.2480406518072061
  0.2461385913070131  0.7537601894382867  0.0008598099076842
  0.9937789671143833  0.5063837941360083  0.5004945334671865
  0.9985005151989939  0.7482763202887442  0.7421402240947456
  0.2479710625254843  0.4946359892616629  0.7505309643186440
  0.2464000643350991  0.7526116735614617  0.4987849021297014
  0.5090165642788740  0.0035256870390534  0.9967752821404205
  0.4964747403433147  0.2416227192927778  0.2539589678002632
  0.7586713790020704  0.9980160220772348  0.2546428636222687
  0.7553121543297540  0.2453259177082311  0.9982927721738235
  0.5008103479272243  0.9973029540560634  0.4978141768304999
  0.4992780872833520  0.2487136631101919  0.7507281886000411
  0.7496546371695800  0.0045854353237503  0.7457345481012697
  0.7513653831476090  0.2501058177664010  0.5045401440468399
  0.5092951519090971  0.5015230079683132  0.9985017683579743
  0.5004409928449458  0.7441904149123423  0.2541750576434091
  0.7459352613157867  0.4913063371933680  0.2527911383411213
  0.7495393519542608  0.7418366338867306  0.9954063628697624
  0.4948873699230380  0.5003323478571772  0.5053287338346473
  0.5003267486822509  0.7540249176496309  0.7560606365371372
  0.7432827674461709  0.5028161619828964  0.7473026579658184
  0.7541864312287881  0.7480692341439721  0.4954862727803105
  0.2482136624165944  0.0008041298249045  0.9887263145151287
  0.2475126022123887  0.2436253452600594  0.2495020126550860
  0.0018273655154751  0.9996560056955327  0.2516226866311903
  0.9972289765535598  0.2435761939407758  0.9939937312928048
  0.2438384591211706  0.9959502598394578  0.5007019193745127
  0.2555613414986954  0.2591986170422935  0.7467949521841896
  0.0016616747397166  0.0052802643626632  0.7526267266196804
  0.0001028228847337  0.2448446483866470  0.4994907152477602
  0.2599338003975956  0.5015322540739510  0.0038952628850901
  0.2487199343159703  0.7435810311874315  0.2468671322704140
  0.9937456934708857  0.4947400425796960  0.2477280589829927
  0.9990956834693570  0.7332407554335736  0.9914090876492273
  0.2469595889980897  0.4979441482466161  0.5025426594943389
  0.2501917814423649  0.7593839665374152  0.7526061977545181
  0.9932110036485177  0.4989273445338056  0.7514792875072642
  0.0100184671249149  0.7531789585034234  0.4967504948386409
  0.7532738782620485  0.0004974586638523  0.0003115225528562
  0.7479084488687819  0.2442439621045043  0.2567490007377654
  0.5021886842872152  0.0067504384460667  0.2568903631309348
  0.5009230900306231  0.2496854998034114  0.9960526779906349
  0.7536787384332626  0.0010265417360672  0.5018616411764171
  0.7456908650137029  0.2530622751945050  0.7537940701821193
  0.5083168708620536  0.0062767292010258  0.7468496994318733
  0.5018567151145183  0.2621143100095752  0.5003225552530203
  0.7450052680121489  0.5040537657757339  0.9994993727269124
  0.7447086015616095  0.7415696634081953  0.2504412044486489
  0.5007352124971652  0.4993971298112619  0.2514713649788702
  0.5007707468048337  0.7505505213904000  0.9911331329514732
  0.7506248549285727  0.4983488320232589  0.5124547368847797
  0.7562209835313368  0.7473232582545496  0.7432788997517012
  0.4938149515301007  0.5099769840228335  0.7524083404005791
  0.5043245325251701  0.7519696838952046  0.4941623720015212
