Zr C 
 1.0000000000000000
     9.5541257540596227    0.0000000000000000    0.0000000000000000
     0.0000000000000000    9.5541257540596227    0.0000000000000000
     0.0000000000000000    0.0000000000000000    9.5541257540596227
 Zr  C  
  32  32
Direct
  0.9287815936784295  0.9205198853827793  0.2062670390498716
  0.2326958716296300  0.0369984045740449  0.4200546332870632
  0.2976987296604774  0.8174342587798940  0.6350221177926247
  0.7076194450535629  0.4658475191315998  0.8249685012478052
  0.7045340837385859  0.8155600464803132  0.9197498997044063
  0.0268712592453488  0.2111601094577146  0.6384090901680146
  0.5074092883841422  0.2182466981988384  0.8633106965852198
  0.2936865938579198  0.4444774466356159  0.6741559684059194
  0.0249341086910832  0.3730304238967796  0.3591179331716185
  0.0356078775554577  0.8109326388872283  0.5287294264316710
  0.6466069558876195  0.3258658029152597  0.1040009285598733
  0.4473168262605359  0.4083295249010446  0.3478879476322264
  0.2989949330304966  0.9694183709194062  0.9228163759843058
  0.8501809807776718  0.9824459926133629  0.6646036061752653
  0.8833704413481759  0.0765145486691318  0.9716585890713688
  0.1816072568714875  0.7127842008052244  0.1499612829914439
  0.2180204891185276  0.2577268798198230  0.8890575069571787
  0.5291267772827822  0.1748635482728621  0.5041564580572236
  0.4852625325797096  0.6967971696657739  0.2374538129808504
  0.3888504930366249  0.6362416589939796  0.9247490269118021
  0.6526815619263081  0.8308617416603123  0.3823303328876411
  0.2769082151630522  0.3989423593655803  0.0799887101774491
  0.6699672523443797  0.6640708859587436  0.6749770199811164
  0.7422360028060968  0.4581432799479441  0.4053413446389343
  0.5207869843963275  0.9572396664460867  0.7133287492226882
  0.8285233985575821  0.6193736509576061  0.1996185992412360
  0.9949619886425327  0.5199159826726518  0.9519638026739399
  0.0450169515256407  0.7866332999444313  0.8407109107441518
  0.2231923375190999  0.6235411301205301  0.3645645028756695
  0.5412412954479655  0.9954874108663158  0.1737531406507818
  0.9635396955172369  0.5526180067031857  0.6349799433425105
  0.1456668848375818  0.1208556267379826  0.1562101272704984
  0.5106468101413639  0.3532019157866049  0.6856127784665482
  0.8803293310731041  0.7761435106617446  0.7057985433292758
  0.6903055779015280  0.8203653809694990  0.1750817838345109
  0.4395847802417141  0.9624189612694354  0.5223069574878951
  0.8493771427083711  0.7156873151993608  0.4312354145275246
  0.6839374111527782  0.1731002074467440  0.9531381493623966
  0.4970943377044840  0.9197166229810112  0.9666791166251155
  0.5209047806268745  0.6441668330966782  0.4594333205353587
  0.1997249669012565  0.5418361546895434  0.9065109531742902
  0.0210796042656676  0.5332981950582982  0.1878840122276245
  0.1732279041121852  0.6395167320676938  0.6676903878190455
  0.2546373992435562  0.9544255492058384  0.1396770603980133
  0.9228641584828569  0.3010775641902911  0.8383241847802080
  0.4820623025652566  0.5223687592577225  0.0967115028402664
  0.1204453625190183  0.5295431978074894  0.7904018536423018
  0.5066579903454571  0.2037241072709303  0.2449093993770974
  0.2607605939121942  0.3068062635468352  0.5256544009655767
  0.8342183822118301  0.3254533884148199  0.9658689436947109
  0.2059122289827590  0.0414633625511653  0.6953891482092940
  0.8302524258369858  0.6749360209394369  0.9825322636213901
  0.5932183148826314  0.5503911760597896  0.0171809875823155
  0.7907241357787194  0.1256704831930672  0.5124645075892567
  0.0206675232274889  0.1233054186501371  0.3049010909975301
  0.4504781233564179  0.5859848869606016  0.5729613855746030
  0.5186931386112356  0.4510555712718021  0.5758493059107885
  0.4299087447383381  0.9290187111351510  0.3867854668366487
  0.3735906321395616  0.1252273328548144  0.2664322125944394
  0.0933656463084911  0.0231292256024686  0.7816616241299077
  0.1177192372062386  0.4183939444487088  0.5414664400666750
  0.8543026007933644  0.6441158948933797  0.8254591541992810
  0.7401493691869476  0.9212188060493340  0.0764744696488365
  0.9009841942264543  0.0527832539493314  0.4337039003593760
