Zr C 
 1.0000000000000000
     9.4000000000000004    0.0000000000000000    0.0000000000000000
     0.0000000000000000    9.4000000000000004    0.0000000000000000
     0.0000000000000000    0.0000000000000000    9.4000000000000004
 Zr  C  
  32  32
Direct
  0.9940361446808512  0.0196231936170213  0.9831935893617023
  0.0027334659574468  0.2375198500000000  0.2470738914893617
  0.2369116223404255  0.0112869010638298  0.2507151617021277
  0.2419581212765957  0.2594498287234042  0.0037815797872340
  0.0026778351063830  0.0133279319148936  0.4908448404255319
  0.0105556212765957  0.2508187191489362  0.7506620574468085
  0.2321322340425532  0.0046531265957447  0.7512933957446808
  0.2583120904255319  0.2587481478723404  0.4948191957446808
  0.0112571978723404  0.5029659478723405  0.0061664180851064
  0.9982399553191491  0.7457954957446808  0.2433621957446808
  0.2616717425531915  0.5025233521276595  0.2631477095744681
  0.2500744000000000  0.7503005829787234  0.0044002031914894
  0.0131095234042553  0.5165010223404256  0.4960054808510638
  0.0046567553191489  0.7699812776595744  0.7483764191489362
  0.2703872425531915  0.4857461042553192  0.7512694265957447
  0.2506205170212766  0.7607875308510638  0.5184359957446808
  0.4934388829787233  0.0012577042553191  0.0230357340425532
  0.4920588244680851  0.2570851393617021  0.2620568510638298
  0.7423607925531914  0.9926588265957447  0.2601878329787234
  0.7356009617021276  0.2335512521276596  0.9971784063829788
  0.5058612148936170  0.0081705053191489  0.4919808393617021
  0.5026766904255319  0.2271066585106383  0.7481970617021276
  0.7461573574468084  0.9910481627659575  0.7552586117021277
  0.7540062904255318  0.2423186297872340  0.4882002851063829
  0.4927145670212766  0.4732707351063830  0.9838324244680852
  0.5006641617021276  0.7480746053191489  0.2445901468085106
  0.7435979106382978  0.5100249648936169  0.2396611553191489
  0.7430726255319149  0.7486412648936169  0.0014087393617021
  0.5094188117021277  0.4993830989361702  0.5149009563829787
  0.4999798627659575  0.7537688393617020  0.7515634680851064
  0.7650789223404255  0.4869715265957447  0.7368231851063830
  0.7432648521276596  0.7521535127659574  0.5067498595744681
  0.2501570659574468  0.0218812042553191  0.0185157244680851
  0.2576596936170213  0.2625248574468085  0.2655458085106382
  0.9940863925531915  0.9724305946808512  0.2446147372340425
  0.9953012297872340  0.2692658521276596  0.9910707457446809
  0.2413475776595745  0.0113620542553191  0.5012791861702127
  0.2690465446808511  0.2414704978723404  0.7559067617021277
  0.0120942755319149  0.0165193372340426  0.7441970776595744
  0.0223612946808511  0.2546356191489362  0.4950742904255319
  0.2451127680851064  0.4944564531914893  0.9891021234042554
  0.2555145170212766  0.7486723585106382  0.2702872404255319
  0.9745694797872342  0.5210503191489361  0.2260078819148936
  0.9791686000000002  0.7619478170212766  0.9892738563829789
  0.2630566648936170  0.5067614478723405  0.5043216361702128
  0.2669095031914894  0.7494227244680850  0.7696612531914894
  0.0241084840425532  0.5097319074468085  0.7404868872340424
  0.9970926425531916  0.7622803468085105  0.5104779170212765
  0.7524168723404255  0.9878070000000002  0.9754109531914893
  0.7446107797872340  0.2341692202127659  0.2475046404255319
  0.4625469446808510  0.9643270446808511  0.2507285925531915
  0.4964789010638297  0.2281873946808511  0.9977297765957447
  0.7315246244680851  0.0050683180851064  0.5013639968085106
  0.7493460010638298  0.2422786680851064  0.7398056297872341
  0.4821687787234042  0.9796457223404255  0.7294132531914893
  0.4902692010638298  0.2375900319148936  0.4954961457446808
  0.7229610617021277  0.4608429095744681  0.0082738074468085
  0.7397225595744680  0.7383529074468085  0.2639438234042553
  0.4972663042553191  0.4933782872340425  0.2446954361702128
  0.4981902521276596  0.7381102457446808  0.9824553893617022
  0.7634551627659574  0.5123174319148935  0.4698547734042553
  0.7505736351063830  0.7389243074468085  0.7530404659574468
  0.5135247255319149  0.4629781287234042  0.7438175968085107
  0.4868208159574468  0.7537762414893617  0.5109724031914893
