Zr C 
 1.0000000000000000
     9.5541257540596227    0.0000000000000000    0.0000000000000000
     0.0000000000000000    9.5541257540596227    0.0000000000000000
     0.0000000000000000    0.0000000000000000    9.5541257540596227
 Zr  C  
  32  32
Direct
  0.0063429529357252  0.9921749983280016  0.0025263703473595
  0.0019734699422381  0.2478908589824304  0.2528425250184251
  0.2386856944007699  0.9984472676640564  0.2527291111878044
  0.2501858287750022  0.2426779592067667  0.0075449624440384
  0.9956029498583739  0.0053697440582882  0.4954289918142165
  0.0039340585384308  0.2478176110455688  0.7476761499569666
  0.2487737121306021  0.9971158104143342  0.7446180648163576
  0.2491527588475098  0.2586496968547834  0.4948754529414680
  0.0019396238313198  0.4888483373808912  0.0009543112823406
  0.0044600867831255  0.7456616663196939  0.2516024994729202
  0.2451908851005669  0.5039112896283902  0.2500446416025991
  0.2503969773459893  0.7550140238561260  0.9987190800796399
  0.0010345572430633  0.5005196271326112  0.4995381464360633
  0.9991311638329154  0.7434940634920673  0.7512431995099328
  0.2465823771472726  0.4946820537705167  0.7489699156366521
  0.2481201285206787  0.7527755385618632  0.5032184109526844
  0.4970056091194262  0.9941410138990253  0.9984268398399914
  0.4998500200785820  0.2498006726555701  0.2549053029750190
  0.7502199253505105  0.9992925171623235  0.2487840113460963
  0.7473737245886620  0.2598235771541121  0.9978644158005425
  0.4931532712972700  0.9912644021914264  0.4943736697199144
  0.5031634849433865  0.2532280642184335  0.7492798634096067
  0.7583034122113763  0.0010067723879302  0.7517012916590905
  0.7475950132815706  0.2549919419853595  0.5072252307272445
  0.4991152725798884  0.5041785804371713  0.9961422864897568
  0.4942903434145576  0.7529787146608564  0.2470161625198630
  0.7458115795652246  0.4960818103096555  0.2479131749960028
  0.7553781283372212  0.7502886328405413  0.0075542736047129
  0.5082677677689793  0.5022883017800869  0.4881825391525921
  0.4954904793867190  0.7554266529235554  0.7538946948588646
  0.7510179094043378  0.5115732664417993  0.7575605007004006
  0.7567181881532185  0.7463996762832956  0.4941494629159492
  0.2537237097774202  0.9985363454113991  0.0024655285691620
  0.2480062824160743  0.2566303420235156  0.2546587079373727
  0.0054245183006910  0.9988988118566967  0.2485383426098435
  0.0062626829016329  0.2464385063174988  0.9966080078037250
  0.2426983127173866  0.0043610458007940  0.4968221951634967
  0.2576603577730800  0.2468367436966104  0.7510269013311986
  0.0013829146004684  0.9898772266045478  0.7460633168839403
  0.9993138932678152  0.2528731306444685  0.5068753996609555
  0.2483987097397786  0.5018162680099553  0.9952811035608524
  0.2467293921684432  0.7496373089873509  0.2474012024591203
  0.9964633341794102  0.4869442270029982  0.2613190902306413
  0.0063031659358693  0.7467591293707265  0.0036573812088618
  0.2555570884089038  0.5057770385685719  0.4986217779241375
  0.2523426687131037  0.7521393191780628  0.7492218151889452
  0.9990449727965823  0.4974871958305960  0.7527866667386045
  0.9978677326921992  0.7458166873062421  0.5036053924615292
  0.7623353467903859  0.0067706121590993  0.0009471279982007
  0.7558239870279747  0.2603436645098692  0.2535510304509733
  0.4927156708189402  0.0047836412432169  0.2470607997803490
  0.5020222722065365  0.2509119548673925  0.0024183855849063
  0.7538245691333670  0.0055127220800522  0.4930335136104389
  0.7476899942377941  0.2460851040191707  0.7485361061906921
  0.4948065769378504  0.9935913131587175  0.7473780263951337
  0.4976914028978068  0.2605178929053132  0.5002970698777942
  0.7518408407956960  0.4915208780881506  0.0084938163981690
  0.7578608076121848  0.7476928443154152  0.2551259092402343
  0.4909700113594221  0.4995371583812436  0.2474487630640042
  0.5054233599498281  0.7532754629006203  0.9991939419473596
  0.7532660983598656  0.4960440538461877  0.5036220930999871
  0.7551881371180635  0.7534712390551476  0.7469693851337037
  0.4979674930464925  0.5115484761045045  0.7479275554818500
  0.5069789078233408  0.7541577288679086  0.5019890373498710
