Zr C 
 1.0000000000000000
     9.4000000000000004    0.0000000000000000    0.0000000000000000
     0.0000000000000000    9.4000000000000004    0.0000000000000000
     0.0000000000000000    0.0000000000000000    9.4000000000000004
 Zr  C  
  32  32
Direct
  0.2069639234042553  0.7054752436170214  0.3261829223404255
  0.1428710819148936  0.3316552436170212  0.2146158595744681
  0.8454750776595745  0.6329503840425533  0.3509581882978723
  0.4151353691489362  0.3628163787234042  0.3734544563829787
  0.5535844702127660  0.1080761446808511  0.5503110787234042
  0.4191725989361702  0.8586283063829787  0.1367477617021277
  0.4743831329787234  0.0338573244680851  0.8421036840425531
  0.6361522021276595  0.5850404170212766  0.0875387957446810
  0.8249003425531916  0.3551926329787234  0.1663481404255319
  0.3595667212765957  0.6106125755319148  0.0792877478723404
  0.5990875797872341  0.2087167776595745  0.0489578329787234
  0.7814952042553192  0.8747083957446808  0.9744890808510640
  0.5800501329787234  0.6591548148936172  0.3790593744680851
  0.9531264021276596  0.7146585819148936  0.7668323212765957
  0.3917665606382978  0.0848112680851064  0.3262067148936170
  0.2038231457446809  0.5720238457446808  0.7792407021276596
  0.4791678223404255  0.5222758638297872  0.6938175680851064
  0.3096943627659574  0.8300478223404256  0.5937403946808510
  0.2851359904255319  0.3007440893617021  0.9119887510638298
  0.6038947723404255  0.7895446085106383  0.7010559787234043
  0.2086209074468085  0.8497448138297873  0.8662523627659574
  0.8713341074468084  0.0540193021276596  0.6366352500000000
  0.0212946765957447  0.6310687106382979  0.0605050095744682
  0.6687651606382978  0.3212241510638297  0.4440156904255319
  0.9832283106382979  0.1028637808510638  0.9074802936170214
  0.9992089265957448  0.0499819404255320  0.4095949914893617
  0.9652422127659577  0.4273922840425531  0.8818038957446809
  0.6751412521276596  0.9778900914893617  0.2715088712765958
  0.9296771265957448  0.3460660744680851  0.5440072308510638
  0.1093455659574468  0.9084380393617021  0.2021032180851064
  0.2388583829787235  0.1483621276595745  0.6329915787234043
  0.6823701765957446  0.4053868563829787  0.7828177595744680
  0.6399502489361703  0.4407705010638298  0.2824463340425531
  0.0136634180851064  0.1223148489361702  0.1450967212765957
  0.0267840127659574  0.2340290372340426  0.7188529638297873
  0.8838947617021277  0.8817599000000000  0.3595579170212765
  0.2207404265957447  0.0643343734042553  0.8517941085106383
  0.7525322882978723  0.9448451223404257  0.8096668627659575
  0.1951896893617021  0.7595439117021276  0.0835662244680851
  0.4261457074468085  0.7437802127659575  0.8310287712765958
  0.5337431670212768  0.9008714851063832  0.4201506670212765
  0.2372573851063830  0.5998284297872341  0.5453976936170213
  0.1554728042553191  0.3275749063829787  0.4138862202127659
  0.4198580574468085  0.2642680510638294  0.7497026000000000
  0.0511511372340425  0.8282882702127660  0.5422645446808509
  0.6679879244680851  0.1932334351063825  0.8325332361702128
  0.0436349968085106  0.6249946340425533  0.5192294744680851
  0.5858746765957448  0.1902903712765958  0.2935389457446807
  0.7642182904255319  0.1337051776595745  0.4456745500000000
  0.1216146085106383  0.4496075776595746  0.0247341138297872
  0.1443804372340425  0.3684842148936170  0.6304765212765957
  0.8810036276595744  0.0940645553191490  0.1193115489361701
  0.7428477627659577  0.7331183797872340  0.1409137776595744
  0.3977055755319149  0.1253488000000000  0.0682182106382979
  0.5280437978723405  0.7338188553191490  0.9332748893617021
  0.7061716914893618  0.6621174329787234  0.8726239829787235
  0.7619442893617022  0.4244361585106383  0.9754516489361702
  0.3726932393617022  0.5763746297872341  0.4573819691489363
  0.1099809702127660  0.9278761936170212  0.6484313670212767
  0.7471002436170212  0.5260209627659576  0.5402021808510639
  0.3004709244680850  0.1863980063829787  0.1744463191489362
  0.9082264861702128  0.8361830925531915  0.5049505489361702
  0.0216077627659575  0.5212955478723406  0.4211411553191491
  0.4593302776595745  0.4152046074468086  0.0796027042553191
